7809
Lattice="100.0 0.0 0.0 0.0 100.0 0.0 0.0 0.0 60.0" Properties=species:S:1:pos:R:3 pbc="F F F"
Au      28.51785324      55.52473602       1.24752816
Au      27.03570649      57.56473602       2.69002600
Au      25.55355973      59.60473602       4.13252383
Au      24.07141297      61.64473602       5.57502166
Au      22.58926621      63.68473602       7.01751950
Au      31.48214676      55.52473602       1.24752816
Au      34.44644027      55.52473602       1.24752816
Au      32.96429351      57.56473602       2.69002600
Au      31.48214676      51.44473602       1.24752816
Au      32.96429351      53.48473602       2.69002600
Au      28.51785324      59.60473602       4.13252383
Au      31.48214676      59.60473602       4.13252383
Au      30.00000000      61.64473602       5.57502166
Au      30.00000000      57.56473602       2.69002600
Au      28.51785324      55.52473602       4.13252383
Au      31.48214676      55.52473602       4.13252383
Au      30.00000000      57.56473602       5.57502166
Au      30.00000000      53.48473602       2.69002600
Au      31.48214676      51.44473602       4.13252383
Au      30.00000000      53.48473602       5.57502166
Au      25.55355973      63.68473602       7.01751950
Au      28.51785324      63.68473602       7.01751950
Au      27.03570649      65.72473602       8.46001733
Au      27.03570649      61.64473602       5.57502166
Au      25.55355973      59.60473602       7.01751950
Au      28.51785324      59.60473602       7.01751950
Au      27.03570649      61.64473602       8.46001733
Au      27.03570649      57.56473602       5.57502166
Au      28.51785324      55.52473602       7.01751950
Au      27.03570649      57.56473602       8.46001733
Au      25.55355973      67.76473602       9.90251516
Au      24.07141297      65.72473602       8.46001733
Au      22.58926621      63.68473602       9.90251516
Au      25.55355973      63.68473602       9.90251516
Au      24.07141297      65.72473602      11.34501300
Au      24.07141297      61.64473602       8.46001733
Au      25.55355973      59.60473602       9.90251516
Au      24.07141297      61.64473602      11.34501300
Au      22.58926621      67.76473602      12.78751083
Au      21.10711946      65.72473602      11.34501300
Au      22.58926621      63.68473602      12.78751083
Au      21.10711946      65.72473602      14.23000867
Au      19.62497270      67.76473602      15.67250650
Au      34.44644027      59.60473602       4.13252383
Au      37.41073379      59.60473602       4.13252383
Au      35.92858703      61.64473602       5.57502166
Au      35.92858703      57.56473602       2.69002600
Au      34.44644027      55.52473602       4.13252383
Au      35.92858703      57.56473602       5.57502166
Au      31.48214676      63.68473602       7.01751950
Au      34.44644027      63.68473602       7.01751950
Au      32.96429351      65.72473602       8.46001733
Au      32.96429351      61.64473602       5.57502166
Au      31.48214676      59.60473602       7.01751950
Au      34.44644027      59.60473602       7.01751950
Au      32.96429351      61.64473602       8.46001733
Au      32.96429351      57.56473602       5.57502166
Au      31.48214676      55.52473602       7.01751950
Au      34.44644027      55.52473602       7.01751950
Au      32.96429351      57.56473602       8.46001733
Au      32.96429351      53.48473602       5.57502166
Au      31.48214676      51.44473602       7.01751950
Au      32.96429351      53.48473602       8.46001733
Au      28.51785324      67.76473602       9.90251516
Au      31.48214676      67.76473602       9.90251516
Au      30.00000000      69.80473602      11.34501300
Au      30.00000000      65.72473602       8.46001733
Au      28.51785324      63.68473602       9.90251516
Au      31.48214676      63.68473602       9.90251516
Au      30.00000000      65.72473602      11.34501300
Au      30.00000000      61.64473602       8.46001733
Au      28.51785324      59.60473602       9.90251516
Au      31.48214676      59.60473602       9.90251516
Au      30.00000000      61.64473602      11.34501300
Au      30.00000000      57.56473602       8.46001733
Au      28.51785324      55.52473602       9.90251516
Au      31.48214676      55.52473602       9.90251516
Au      30.00000000      57.56473602      11.34501300
Au      30.00000000      53.48473602       8.46001733
Au      31.48214676      51.44473602       9.90251516
Au      30.00000000      53.48473602      11.34501300
Au      28.51785324      71.84473602      12.78751083
Au      27.03570649      69.80473602      11.34501300
Au      25.55355973      67.76473602      12.78751083
Au      28.51785324      67.76473602      12.78751083
Au      27.03570649      69.80473602      14.23000867
Au      27.03570649      65.72473602      11.34501300
Au      25.55355973      63.68473602      12.78751083
Au      28.51785324      63.68473602      12.78751083
Au      27.03570649      65.72473602      14.23000867
Au      27.03570649      61.64473602      11.34501300
Au      25.55355973      59.60473602      12.78751083
Au      28.51785324      59.60473602      12.78751083
Au      27.03570649      61.64473602      14.23000867
Au      27.03570649      57.56473602      11.34501300
Au      28.51785324      55.52473602      12.78751083
Au      27.03570649      57.56473602      14.23000867
Au      25.55355973      71.84473602      15.67250650
Au      24.07141297      69.80473602      14.23000867
Au      22.58926621      67.76473602      15.67250650
Au      25.55355973      67.76473602      15.67250650
Au      24.07141297      69.80473602      17.11500433
Au      24.07141297      65.72473602      14.23000867
Au      22.58926621      63.68473602      15.67250650
Au      25.55355973      63.68473602      15.67250650
Au      24.07141297      65.72473602      17.11500433
Au      24.07141297      61.64473602      14.23000867
Au      25.55355973      59.60473602      15.67250650
Au      24.07141297      61.64473602      17.11500433
Au      22.58926621      71.84473602      18.55750217
Au      21.10711946      69.80473602      17.11500433
Au      19.62497270      67.76473602      18.55750217
Au      22.58926621      67.76473602      18.55750217
Au      21.10711946      69.80473602      20.00000000
Au      21.10711946      65.72473602      17.11500433
Au      22.58926621      63.68473602      18.55750217
Au      21.10711946      65.72473602      20.00000000
Au      19.62497270      67.76473602      21.44249783
Au      37.41073379      63.68473602       7.01751950
Au      38.89288054      61.64473602       5.57502166
Au      37.41073379      59.60473602       7.01751950
Au      38.89288054      61.64473602       8.46001733
Au      34.44644027      67.76473602       9.90251516
Au      35.92858703      65.72473602       8.46001733
Au      34.44644027      63.68473602       9.90251516
Au      37.41073379      63.68473602       9.90251516
Au      35.92858703      65.72473602      11.34501300
Au      35.92858703      61.64473602       8.46001733
Au      34.44644027      59.60473602       9.90251516
Au      37.41073379      59.60473602       9.90251516
Au      35.92858703      61.64473602      11.34501300
Au      35.92858703      57.56473602       8.46001733
Au      34.44644027      55.52473602       9.90251516
Au      35.92858703      57.56473602      11.34501300
Au      31.48214676      71.84473602      12.78751083
Au      32.96429351      69.80473602      11.34501300
Au      31.48214676      67.76473602      12.78751083
Au      34.44644027      67.76473602      12.78751083
Au      32.96429351      69.80473602      14.23000867
Au      32.96429351      65.72473602      11.34501300
Au      31.48214676      63.68473602      12.78751083
Au      34.44644027      63.68473602      12.78751083
Au      32.96429351      65.72473602      14.23000867
Au      32.96429351      61.64473602      11.34501300
Au      31.48214676      59.60473602      12.78751083
Au      34.44644027      59.60473602      12.78751083
Au      32.96429351      61.64473602      14.23000867
Au      32.96429351      57.56473602      11.34501300
Au      31.48214676      55.52473602      12.78751083
Au      34.44644027      55.52473602      12.78751083
Au      32.96429351      57.56473602      14.23000867
Au      32.96429351      53.48473602      11.34501300
Au      31.48214676      51.44473602      12.78751083
Au      32.96429351      53.48473602      14.23000867
Au      30.00000000      73.88473602      14.23000867
Au      28.51785324      71.84473602      15.67250650
Au      31.48214676      71.84473602      15.67250650
Au      30.00000000      73.88473602      17.11500433
Au      30.00000000      69.80473602      14.23000867
Au      28.51785324      67.76473602      15.67250650
Au      31.48214676      67.76473602      15.67250650
Au      30.00000000      69.80473602      17.11500433
Au      30.00000000      65.72473602      14.23000867
Au      28.51785324      63.68473602      15.67250650
Au      31.48214676      63.68473602      15.67250650
Au      30.00000000      65.72473602      17.11500433
Au      30.00000000      61.64473602      14.23000867
Au      28.51785324      59.60473602      15.67250650
Au      31.48214676      59.60473602      15.67250650
Au      30.00000000      61.64473602      17.11500433
Au      30.00000000      57.56473602      14.23000867
Au      28.51785324      55.52473602      15.67250650
Au      31.48214676      55.52473602      15.67250650
Au      30.00000000      57.56473602      17.11500433
Au      30.00000000      53.48473602      14.23000867
Au      31.48214676      51.44473602      15.67250650
Au      30.00000000      53.48473602      17.11500433
Au      27.03570649      73.88473602      17.11500433
Au      25.55355973      71.84473602      18.55750217
Au      28.51785324      71.84473602      18.55750217
Au      27.03570649      73.88473602      20.00000000
Au      27.03570649      69.80473602      17.11500433
Au      25.55355973      67.76473602      18.55750217
Au      28.51785324      67.76473602      18.55750217
Au      27.03570649      69.80473602      20.00000000
Au      27.03570649      65.72473602      17.11500433
Au      25.55355973      63.68473602      18.55750217
Au      28.51785324      63.68473602      18.55750217
Au      27.03570649      65.72473602      20.00000000
Au      27.03570649      61.64473602      17.11500433
Au      25.55355973      59.60473602      18.55750217
Au      28.51785324      59.60473602      18.55750217
Au      27.03570649      61.64473602      20.00000000
Au      27.03570649      57.56473602      17.11500433
Au      28.51785324      55.52473602      18.55750217
Au      27.03570649      57.56473602      20.00000000
Au      24.07141297      73.88473602      20.00000000
Au      22.58926621      71.84473602      21.44249783
Au      25.55355973      71.84473602      21.44249783
Au      24.07141297      69.80473602      20.00000000
Au      22.58926621      67.76473602      21.44249783
Au      25.55355973      67.76473602      21.44249783
Au      24.07141297      69.80473602      22.88499567
Au      24.07141297      65.72473602      20.00000000
Au      22.58926621      63.68473602      21.44249783
Au      25.55355973      63.68473602      21.44249783
Au      24.07141297      65.72473602      22.88499567
Au      24.07141297      61.64473602      20.00000000
Au      25.55355973      59.60473602      21.44249783
Au      24.07141297      61.64473602      22.88499567
Au      21.10711946      69.80473602      22.88499567
Au      19.62497270      67.76473602      24.32749350
Au      22.58926621      67.76473602      24.32749350
Au      21.10711946      65.72473602      22.88499567
Au      22.58926621      63.68473602      24.32749350
Au      21.10711946      65.72473602      25.76999133
Au      40.37502730      63.68473602       9.90251516
Au      37.41073379      67.76473602      12.78751083
Au      38.89288054      65.72473602      11.34501300
Au      37.41073379      63.68473602      12.78751083
Au      40.37502730      63.68473602      12.78751083
Au      38.89288054      65.72473602      14.23000867
Au      38.89288054      61.64473602      11.34501300
Au      37.41073379      59.60473602      12.78751083
Au      38.89288054      61.64473602      14.23000867
Au      34.44644027      71.84473602      15.67250650
Au      35.92858703      69.80473602      14.23000867
Au      34.44644027      67.76473602      15.67250650
Au      37.41073379      67.76473602      15.67250650
Au      35.92858703      69.80473602      17.11500433
Au      35.92858703      65.72473602      14.23000867
Au      34.44644027      63.68473602      15.67250650
Au      37.41073379      63.68473602      15.67250650
Au      35.92858703      65.72473602      17.11500433
Au      35.92858703      61.64473602      14.23000867
Au      34.44644027      59.60473602      15.67250650
Au      37.41073379      59.60473602      15.67250650
Au      35.92858703      61.64473602      17.11500433
Au      35.92858703      57.56473602      14.23000867
Au      34.44644027      55.52473602      15.67250650
Au      35.92858703      57.56473602      17.11500433
Au      32.96429351      73.88473602      17.11500433
Au      31.48214676      71.84473602      18.55750217
Au      34.44644027      71.84473602      18.55750217
Au      32.96429351      73.88473602      20.00000000
Au      32.96429351      69.80473602      17.11500433
Au      31.48214676      67.76473602      18.55750217
Au      34.44644027      67.76473602      18.55750217
Au      32.96429351      69.80473602      20.00000000
Au      32.96429351      65.72473602      17.11500433
Au      31.48214676      63.68473602      18.55750217
Au      34.44644027      63.68473602      18.55750217
Au      32.96429351      65.72473602      20.00000000
Au      32.96429351      61.64473602      17.11500433
Au      31.48214676      59.60473602      18.55750217
Au      34.44644027      59.60473602      18.55750217
Au      32.96429351      61.64473602      20.00000000
Au      32.96429351      57.56473602      17.11500433
Au      31.48214676      55.52473602      18.55750217
Au      34.44644027      55.52473602      18.55750217
Au      32.96429351      57.56473602      20.00000000
Au      32.96429351      53.48473602      17.11500433
Au      31.48214676      51.44473602      18.55750217
Au      32.96429351      53.48473602      20.00000000
Au      30.00000000      73.88473602      20.00000000
Au      28.51785324      71.84473602      21.44249783
Au      31.48214676      71.84473602      21.44249783
Au      30.00000000      73.88473602      22.88499567
Au      30.00000000      69.80473602      20.00000000
Au      28.51785324      67.76473602      21.44249783
Au      31.48214676      67.76473602      21.44249783
Au      30.00000000      69.80473602      22.88499567
Au      30.00000000      65.72473602      20.00000000
Au      28.51785324      63.68473602      21.44249783
Au      31.48214676      63.68473602      21.44249783
Au      30.00000000      65.72473602      22.88499567
Au      30.00000000      61.64473602      20.00000000
Au      28.51785324      59.60473602      21.44249783
Au      31.48214676      59.60473602      21.44249783
Au      30.00000000      61.64473602      22.88499567
Au      30.00000000      57.56473602      20.00000000
Au      28.51785324      55.52473602      21.44249783
Au      31.48214676      55.52473602      21.44249783
Au      30.00000000      57.56473602      22.88499567
Au      30.00000000      53.48473602      20.00000000
Au      31.48214676      51.44473602      21.44249783
Au      30.00000000      53.48473602      22.88499567
Au      27.03570649      73.88473602      22.88499567
Au      25.55355973      71.84473602      24.32749350
Au      28.51785324      71.84473602      24.32749350
Au      27.03570649      69.80473602      22.88499567
Au      25.55355973      67.76473602      24.32749350
Au      28.51785324      67.76473602      24.32749350
Au      27.03570649      69.80473602      25.76999133
Au      27.03570649      65.72473602      22.88499567
Au      25.55355973      63.68473602      24.32749350
Au      28.51785324      63.68473602      24.32749350
Au      27.03570649      65.72473602      25.76999133
Au      27.03570649      61.64473602      22.88499567
Au      25.55355973      59.60473602      24.32749350
Au      28.51785324      59.60473602      24.32749350
Au      27.03570649      61.64473602      25.76999133
Au      27.03570649      57.56473602      22.88499567
Au      28.51785324      55.52473602      24.32749350
Au      27.03570649      57.56473602      25.76999133
Au      24.07141297      69.80473602      25.76999133
Au      22.58926621      67.76473602      27.21248917
Au      25.55355973      67.76473602      27.21248917
Au      24.07141297      65.72473602      25.76999133
Au      22.58926621      63.68473602      27.21248917
Au      25.55355973      63.68473602      27.21248917
Au      24.07141297      65.72473602      28.65498700
Au      24.07141297      61.64473602      25.76999133
Au      25.55355973      59.60473602      27.21248917
Au      24.07141297      61.64473602      28.65498700
Au      21.10711946      65.72473602      28.65498700
Au      22.58926621      63.68473602      30.09748484
Au      40.37502730      67.76473602      15.67250650
Au      41.85717406      65.72473602      14.23000867
Au      40.37502730      63.68473602      15.67250650
Au      41.85717406      65.72473602      17.11500433
Au      37.41073379      71.84473602      18.55750217
Au      38.89288054      69.80473602      17.11500433
Au      37.41073379      67.76473602      18.55750217
Au      40.37502730      67.76473602      18.55750217
Au      38.89288054      69.80473602      20.00000000
Au      38.89288054      65.72473602      17.11500433
Au      37.41073379      63.68473602      18.55750217
Au      40.37502730      63.68473602      18.55750217
Au      38.89288054      65.72473602      20.00000000
Au      38.89288054      61.64473602      17.11500433
Au      37.41073379      59.60473602      18.55750217
Au      38.89288054      61.64473602      20.00000000
Au      35.92858703      73.88473602      20.00000000
Au      34.44644027      71.84473602      21.44249783
Au      37.41073379      71.84473602      21.44249783
Au      35.92858703      69.80473602      20.00000000
Au      34.44644027      67.76473602      21.44249783
Au      37.41073379      67.76473602      21.44249783
Au      35.92858703      69.80473602      22.88499567
Au      35.92858703      65.72473602      20.00000000
Au      34.44644027      63.68473602      21.44249783
Au      37.41073379      63.68473602      21.44249783
Au      35.92858703      65.72473602      22.88499567
Au      35.92858703      61.64473602      20.00000000
Au      34.44644027      59.60473602      21.44249783
Au      37.41073379      59.60473602      21.44249783
Au      35.92858703      61.64473602      22.88499567
Au      35.92858703      57.56473602      20.00000000
Au      34.44644027      55.52473602      21.44249783
Au      35.92858703      57.56473602      22.88499567
Au      32.96429351      73.88473602      22.88499567
Au      31.48214676      71.84473602      24.32749350
Au      34.44644027      71.84473602      24.32749350
Au      32.96429351      69.80473602      22.88499567
Au      31.48214676      67.76473602      24.32749350
Au      34.44644027      67.76473602      24.32749350
Au      32.96429351      69.80473602      25.76999133
Au      32.96429351      65.72473602      22.88499567
Au      31.48214676      63.68473602      24.32749350
Au      34.44644027      63.68473602      24.32749350
Au      32.96429351      65.72473602      25.76999133
Au      32.96429351      61.64473602      22.88499567
Au      31.48214676      59.60473602      24.32749350
Au      34.44644027      59.60473602      24.32749350
Au      32.96429351      61.64473602      25.76999133
Au      32.96429351      57.56473602      22.88499567
Au      31.48214676      55.52473602      24.32749350
Au      34.44644027      55.52473602      24.32749350
Au      32.96429351      57.56473602      25.76999133
Au      32.96429351      53.48473602      22.88499567
Au      31.48214676      51.44473602      24.32749350
Au      32.96429351      53.48473602      25.76999133
Au      30.00000000      73.88473602      25.76999133
Au      28.51785324      71.84473602      27.21248917
Au      31.48214676      71.84473602      27.21248917
Au      30.00000000      69.80473602      25.76999133
Au      28.51785324      67.76473602      27.21248917
Au      31.48214676      67.76473602      27.21248917
Au      30.00000000      69.80473602      28.65498700
Au      30.00000000      65.72473602      25.76999133
Au      28.51785324      63.68473602      27.21248917
Au      31.48214676      63.68473602      27.21248917
Au      30.00000000      65.72473602      28.65498700
Au      30.00000000      61.64473602      25.76999133
Au      28.51785324      59.60473602      27.21248917
Au      31.48214676      59.60473602      27.21248917
Au      30.00000000      61.64473602      28.65498700
Au      30.00000000      57.56473602      25.76999133
Au      28.51785324      55.52473602      27.21248917
Au      31.48214676      55.52473602      27.21248917
Au      30.00000000      57.56473602      28.65498700
Au      30.00000000      53.48473602      25.76999133
Au      31.48214676      51.44473602      27.21248917
Au      30.00000000      53.48473602      28.65498700
Au      27.03570649      69.80473602      28.65498700
Au      25.55355973      67.76473602      30.09748484
Au      28.51785324      67.76473602      30.09748484
Au      27.03570649      65.72473602      28.65498700
Au      25.55355973      63.68473602      30.09748484
Au      28.51785324      63.68473602      30.09748484
Au      27.03570649      65.72473602      31.53998267
Au      27.03570649      61.64473602      28.65498700
Au      25.55355973      59.60473602      30.09748484
Au      28.51785324      59.60473602      30.09748484
Au      27.03570649      61.64473602      31.53998267
Au      27.03570649      57.56473602      28.65498700
Au      28.51785324      55.52473602      30.09748484
Au      27.03570649      57.56473602      31.53998267
Au      24.07141297      65.72473602      31.53998267
Au      22.58926621      63.68473602      32.98248050
Au      25.55355973      63.68473602      32.98248050
Au      24.07141297      61.64473602      31.53998267
Au      25.55355973      59.60473602      32.98248050
Au      24.07141297      61.64473602      34.42497834
Au      40.37502730      67.76473602      21.44249783
Au      41.85717406      65.72473602      20.00000000
Au      40.37502730      63.68473602      21.44249783
Au      41.85717406      65.72473602      22.88499567
Au      38.89288054      69.80473602      22.88499567
Au      37.41073379      67.76473602      24.32749350
Au      40.37502730      67.76473602      24.32749350
Au      38.89288054      65.72473602      22.88499567
Au      37.41073379      63.68473602      24.32749350
Au      40.37502730      63.68473602      24.32749350
Au      38.89288054      65.72473602      25.76999133
Au      38.89288054      61.64473602      22.88499567
Au      37.41073379      59.60473602      24.32749350
Au      38.89288054      61.64473602      25.76999133
Au      35.92858703      69.80473602      25.76999133
Au      34.44644027      67.76473602      27.21248917
Au      37.41073379      67.76473602      27.21248917
Au      35.92858703      65.72473602      25.76999133
Au      34.44644027      63.68473602      27.21248917
Au      37.41073379      63.68473602      27.21248917
Au      35.92858703      65.72473602      28.65498700
Au      35.92858703      61.64473602      25.76999133
Au      34.44644027      59.60473602      27.21248917
Au      37.41073379      59.60473602      27.21248917
Au      35.92858703      61.64473602      28.65498700
Au      35.92858703      57.56473602      25.76999133
Au      34.44644027      55.52473602      27.21248917
Au      35.92858703      57.56473602      28.65498700
Au      32.96429351      69.80473602      28.65498700
Au      31.48214676      67.76473602      30.09748484
Au      34.44644027      67.76473602      30.09748484
Au      32.96429351      65.72473602      28.65498700
Au      31.48214676      63.68473602      30.09748484
Au      34.44644027      63.68473602      30.09748484
Au      32.96429351      65.72473602      31.53998267
Au      32.96429351      61.64473602      28.65498700
Au      31.48214676      59.60473602      30.09748484
Au      34.44644027      59.60473602      30.09748484
Au      32.96429351      61.64473602      31.53998267
Au      32.96429351      57.56473602      28.65498700
Au      31.48214676      55.52473602      30.09748484
Au      34.44644027      55.52473602      30.09748484
Au      32.96429351      57.56473602      31.53998267
Au      32.96429351      53.48473602      28.65498700
Au      31.48214676      51.44473602      30.09748484
Au      32.96429351      53.48473602      31.53998267
Au      30.00000000      65.72473602      31.53998267
Au      28.51785324      63.68473602      32.98248050
Au      31.48214676      63.68473602      32.98248050
Au      30.00000000      61.64473602      31.53998267
Au      28.51785324      59.60473602      32.98248050
Au      31.48214676      59.60473602      32.98248050
Au      30.00000000      61.64473602      34.42497834
Au      30.00000000      57.56473602      31.53998267
Au      28.51785324      55.52473602      32.98248050
Au      31.48214676      55.52473602      32.98248050
Au      30.00000000      57.56473602      34.42497834
Au      30.00000000      53.48473602      31.53998267
Au      31.48214676      51.44473602      32.98248050
Au      30.00000000      53.48473602      34.42497834
Au      27.03570649      61.64473602      34.42497834
Au      25.55355973      59.60473602      35.86747617
Au      28.51785324      59.60473602      35.86747617
Au      27.03570649      57.56473602      34.42497834
Au      28.51785324      55.52473602      35.86747617
Au      27.03570649      57.56473602      37.30997400
Au      41.85717406      65.72473602      25.76999133
Au      40.37502730      63.68473602      27.21248917
Au      38.89288054      65.72473602      28.65498700
Au      37.41073379      63.68473602      30.09748484
Au      40.37502730      63.68473602      30.09748484
Au      38.89288054      61.64473602      28.65498700
Au      37.41073379      59.60473602      30.09748484
Au      38.89288054      61.64473602      31.53998267
Au      35.92858703      65.72473602      31.53998267
Au      34.44644027      63.68473602      32.98248050
Au      37.41073379      63.68473602      32.98248050
Au      35.92858703      61.64473602      31.53998267
Au      34.44644027      59.60473602      32.98248050
Au      37.41073379      59.60473602      32.98248050
Au      35.92858703      61.64473602      34.42497834
Au      35.92858703      57.56473602      31.53998267
Au      34.44644027      55.52473602      32.98248050
Au      35.92858703      57.56473602      34.42497834
Au      32.96429351      61.64473602      34.42497834
Au      31.48214676      59.60473602      35.86747617
Au      34.44644027      59.60473602      35.86747617
Au      32.96429351      57.56473602      34.42497834
Au      31.48214676      55.52473602      35.86747617
Au      34.44644027      55.52473602      35.86747617
Au      32.96429351      57.56473602      37.30997400
Au      32.96429351      53.48473602      34.42497834
Au      31.48214676      51.44473602      35.86747617
Au      32.96429351      53.48473602      37.30997400
Au      30.00000000      57.56473602      37.30997400
Au      28.51785324      55.52473602      38.75247184
Au      31.48214676      55.52473602      38.75247184
Au      30.00000000      53.48473602      37.30997400
Au      31.48214676      51.44473602      38.75247184
Au      38.89288054      61.64473602      34.42497834
Au      37.41073379      59.60473602      35.86747617
Au      35.92858703      57.56473602      37.30997400
Au      34.44644027      55.52473602      38.75247184
Au      23.72152558      49.88631470       1.24752816
Au      21.32336175      49.10710403       2.69002600
Au      18.92519793      48.32789337       4.13252383
Au      16.52703410      47.54868271       5.57502166
Au      14.12887027      46.76947204       7.01751950
Au      24.63754266      52.70552536       1.24752816
Au      25.55355973      55.52473602       1.24752816
Au      23.15539590      54.74552536       2.69002600
Au      28.51785324      51.44473602       1.24752816
Au      27.03570649      53.48473602       2.69002600
Au      19.84121500      51.14710403       4.13252383
Au      20.75723207      53.96631470       4.13252383
Au      18.35906824      53.18710403       5.57502166
Au      22.23937883      51.92631470       2.69002600
Au      23.72152558      49.88631470       4.13252383
Au      24.63754266      52.70552536       4.13252383
Au      22.23937883      51.92631470       5.57502166
Au      26.11968941      50.66552536       2.69002600
Au      28.51785324      51.44473602       4.13252383
Au      26.11968941      50.66552536       5.57502166
Au      15.04488734      49.58868271       7.01751950
Au      15.96090441      52.40789337       7.01751950
Au      13.56274058      51.62868271       8.46001733
Au      17.44305117      50.36789337       5.57502166
Au      18.92519793      48.32789337       7.01751950
Au      19.84121500      51.14710403       7.01751950
Au      17.44305117      50.36789337       8.46001733
Au      21.32336175      49.10710403       5.57502166
Au      23.72152558      49.88631470       7.01751950
Au      21.32336175      49.10710403       8.46001733
Au      11.16457675      50.84947204       9.90251516
Au      12.64672351      48.80947204       8.46001733
Au      14.12887027      46.76947204       9.90251516
Au      15.04488734      49.58868271       9.90251516
Au      12.64672351      48.80947204      11.34501300
Au      16.52703410      47.54868271       8.46001733
Au      18.92519793      48.32789337       9.90251516
Au      16.52703410      47.54868271      11.34501300
Au      10.24855968      48.03026138      12.78751083
Au      11.73070644      45.99026138      11.34501300
Au      14.12887027      46.76947204      12.78751083
Au      11.73070644      45.99026138      14.23000867
Au       9.33254261      45.21105072      15.67250650
Au      21.67324914      56.78552536       4.13252383
Au      22.58926621      59.60473602       4.13252383
Au      20.19110238      58.82552536       5.57502166
Au      24.07141297      57.56473602       2.69002600
Au      25.55355973      55.52473602       4.13252383
Au      24.07141297      57.56473602       5.57502166
Au      16.87692148      55.22710403       7.01751950
Au      17.79293856      58.04631470       7.01751950
Au      15.39477473      57.26710403       8.46001733
Au      19.27508531      56.00631470       5.57502166
Au      20.75723207      53.96631470       7.01751950
Au      21.67324914      56.78552536       7.01751950
Au      19.27508531      56.00631470       8.46001733
Au      23.15539590      54.74552536       5.57502166
Au      24.63754266      52.70552536       7.01751950
Au      25.55355973      55.52473602       7.01751950
Au      23.15539590      54.74552536       8.46001733
Au      27.03570649      53.48473602       5.57502166
Au      28.51785324      51.44473602       7.01751950
Au      27.03570649      53.48473602       8.46001733
Au      12.08059382      53.66868271       9.90251516
Au      12.99661090      56.48789337       9.90251516
Au      10.59844707      55.70868271      11.34501300
Au      14.47875765      54.44789337       8.46001733
Au      15.96090441      52.40789337       9.90251516
Au      16.87692148      55.22710403       9.90251516
Au      14.47875765      54.44789337      11.34501300
Au      18.35906824      53.18710403       8.46001733
Au      19.84121500      51.14710403       9.90251516
Au      20.75723207      53.96631470       9.90251516
Au      18.35906824      53.18710403      11.34501300
Au      22.23937883      51.92631470       8.46001733
Au      23.72152558      49.88631470       9.90251516
Au      24.63754266      52.70552536       9.90251516
Au      22.23937883      51.92631470      11.34501300
Au      26.11968941      50.66552536       8.46001733
Au      28.51785324      51.44473602       9.90251516
Au      26.11968941      50.66552536      11.34501300
Au       8.20028324      54.92947204      12.78751083
Au       9.68243000      52.88947204      11.34501300
Au      11.16457675      50.84947204      12.78751083
Au      12.08059382      53.66868271      12.78751083
Au       9.68243000      52.88947204      14.23000867
Au      13.56274058      51.62868271      11.34501300
Au      15.04488734      49.58868271      12.78751083
Au      15.96090441      52.40789337      12.78751083
Au      13.56274058      51.62868271      14.23000867
Au      17.44305117      50.36789337      11.34501300
Au      18.92519793      48.32789337      12.78751083
Au      19.84121500      51.14710403      12.78751083
Au      17.44305117      50.36789337      14.23000867
Au      21.32336175      49.10710403      11.34501300
Au      23.72152558      49.88631470      12.78751083
Au      21.32336175      49.10710403      14.23000867
Au       7.28426617      52.11026138      15.67250650
Au       8.76641292      50.07026138      14.23000867
Au      10.24855968      48.03026138      15.67250650
Au      11.16457675      50.84947204      15.67250650
Au       8.76641292      50.07026138      17.11500433
Au      12.64672351      48.80947204      14.23000867
Au      14.12887027      46.76947204      15.67250650
Au      15.04488734      49.58868271      15.67250650
Au      12.64672351      48.80947204      17.11500433
Au      16.52703410      47.54868271      14.23000867
Au      18.92519793      48.32789337      15.67250650
Au      16.52703410      47.54868271      17.11500433
Au       6.36824909      49.29105072      18.55750217
Au       7.85039585      47.25105072      17.11500433
Au       9.33254261      45.21105072      18.55750217
Au      10.24855968      48.03026138      18.55750217
Au       7.85039585      47.25105072      20.00000000
Au      11.73070644      45.99026138      17.11500433
Au      14.12887027      46.76947204      18.55750217
Au      11.73070644      45.99026138      20.00000000
Au       9.33254261      45.21105072      21.44249783
Au      18.70895563      60.86552536       7.01751950
Au      21.10711946      61.64473602       5.57502166
Au      22.58926621      59.60473602       7.01751950
Au      21.10711946      61.64473602       8.46001733
Au      13.91262797      59.30710403       9.90251516
Au      16.31079180      60.08631470       8.46001733
Au      17.79293856      58.04631470       9.90251516
Au      18.70895563      60.86552536       9.90251516
Au      16.31079180      60.08631470      11.34501300
Au      20.19110238      58.82552536       8.46001733
Au      21.67324914      56.78552536       9.90251516
Au      22.58926621      59.60473602       9.90251516
Au      20.19110238      58.82552536      11.34501300
Au      24.07141297      57.56473602       8.46001733
Au      25.55355973      55.52473602       9.90251516
Au      24.07141297      57.56473602      11.34501300
Au       9.11630031      57.74868271      12.78751083
Au      11.51446414      58.52789337      11.34501300
Au      12.99661090      56.48789337      12.78751083
Au      13.91262797      59.30710403      12.78751083
Au      11.51446414      58.52789337      14.23000867
Au      15.39477473      57.26710403      11.34501300
Au      16.87692148      55.22710403      12.78751083
Au      17.79293856      58.04631470      12.78751083
Au      15.39477473      57.26710403      14.23000867
Au      19.27508531      56.00631470      11.34501300
Au      20.75723207      53.96631470      12.78751083
Au      21.67324914      56.78552536      12.78751083
Au      19.27508531      56.00631470      14.23000867
Au      23.15539590      54.74552536      11.34501300
Au      24.63754266      52.70552536      12.78751083
Au      25.55355973      55.52473602      12.78751083
Au      23.15539590      54.74552536      14.23000867
Au      27.03570649      53.48473602      11.34501300
Au      28.51785324      51.44473602      12.78751083
Au      27.03570649      53.48473602      14.23000867
Au       6.71813648      56.96947204      14.23000867
Au       8.20028324      54.92947204      15.67250650
Au       9.11630031      57.74868271      15.67250650
Au       6.71813648      56.96947204      17.11500433
Au      10.59844707      55.70868271      14.23000867
Au      12.08059382      53.66868271      15.67250650
Au      12.99661090      56.48789337      15.67250650
Au      10.59844707      55.70868271      17.11500433
Au      14.47875765      54.44789337      14.23000867
Au      15.96090441      52.40789337      15.67250650
Au      16.87692148      55.22710403      15.67250650
Au      14.47875765      54.44789337      17.11500433
Au      18.35906824      53.18710403      14.23000867
Au      19.84121500      51.14710403      15.67250650
Au      20.75723207      53.96631470      15.67250650
Au      18.35906824      53.18710403      17.11500433
Au      22.23937883      51.92631470      14.23000867
Au      23.72152558      49.88631470      15.67250650
Au      24.63754266      52.70552536      15.67250650
Au      22.23937883      51.92631470      17.11500433
Au      26.11968941      50.66552536      14.23000867
Au      28.51785324      51.44473602      15.67250650
Au      26.11968941      50.66552536      17.11500433
Au       5.80211941      54.15026138      17.11500433
Au       7.28426617      52.11026138      18.55750217
Au       8.20028324      54.92947204      18.55750217
Au       5.80211941      54.15026138      20.00000000
Au       9.68243000      52.88947204      17.11500433
Au      11.16457675      50.84947204      18.55750217
Au      12.08059382      53.66868271      18.55750217
Au       9.68243000      52.88947204      20.00000000
Au      13.56274058      51.62868271      17.11500433
Au      15.04488734      49.58868271      18.55750217
Au      15.96090441      52.40789337      18.55750217
Au      13.56274058      51.62868271      20.00000000
Au      17.44305117      50.36789337      17.11500433
Au      18.92519793      48.32789337      18.55750217
Au      19.84121500      51.14710403      18.55750217
Au      17.44305117      50.36789337      20.00000000
Au      21.32336175      49.10710403      17.11500433
Au      23.72152558      49.88631470      18.55750217
Au      21.32336175      49.10710403      20.00000000
Au       4.88610234      51.33105072      20.00000000
Au       6.36824909      49.29105072      21.44249783
Au       7.28426617      52.11026138      21.44249783
Au       8.76641292      50.07026138      20.00000000
Au      10.24855968      48.03026138      21.44249783
Au      11.16457675      50.84947204      21.44249783
Au       8.76641292      50.07026138      22.88499567
Au      12.64672351      48.80947204      20.00000000
Au      14.12887027      46.76947204      21.44249783
Au      15.04488734      49.58868271      21.44249783
Au      12.64672351      48.80947204      22.88499567
Au      16.52703410      47.54868271      20.00000000
Au      18.92519793      48.32789337      21.44249783
Au      16.52703410      47.54868271      22.88499567
Au       7.85039585      47.25105072      22.88499567
Au       9.33254261      45.21105072      24.32749350
Au      10.24855968      48.03026138      24.32749350
Au      11.73070644      45.99026138      22.88499567
Au      14.12887027      46.76947204      24.32749350
Au      11.73070644      45.99026138      25.76999133
Au      19.62497270      63.68473602       9.90251516
Au      14.82864504      62.12631470      12.78751083
Au      17.22680887      62.90552536      11.34501300
Au      18.70895563      60.86552536      12.78751083
Au      19.62497270      63.68473602      12.78751083
Au      17.22680887      62.90552536      14.23000867
Au      21.10711946      61.64473602      11.34501300
Au      22.58926621      59.60473602      12.78751083
Au      21.10711946      61.64473602      14.23000867
Au      10.03231738      60.56789337      15.67250650
Au      12.43048121      61.34710403      14.23000867
Au      13.91262797      59.30710403      15.67250650
Au      14.82864504      62.12631470      15.67250650
Au      12.43048121      61.34710403      17.11500433
Au      16.31079180      60.08631470      14.23000867
Au      17.79293856      58.04631470      15.67250650
Au      18.70895563      60.86552536      15.67250650
Au      16.31079180      60.08631470      17.11500433
Au      20.19110238      58.82552536      14.23000867
Au      21.67324914      56.78552536      15.67250650
Au      22.58926621      59.60473602      15.67250650
Au      20.19110238      58.82552536      17.11500433
Au      24.07141297      57.56473602      14.23000867
Au      25.55355973      55.52473602      15.67250650
Au      24.07141297      57.56473602      17.11500433
Au       7.63415355      59.78868271      17.11500433
Au       9.11630031      57.74868271      18.55750217
Au      10.03231738      60.56789337      18.55750217
Au       7.63415355      59.78868271      20.00000000
Au      11.51446414      58.52789337      17.11500433
Au      12.99661090      56.48789337      18.55750217
Au      13.91262797      59.30710403      18.55750217
Au      11.51446414      58.52789337      20.00000000
Au      15.39477473      57.26710403      17.11500433
Au      16.87692148      55.22710403      18.55750217
Au      17.79293856      58.04631470      18.55750217
Au      15.39477473      57.26710403      20.00000000
Au      19.27508531      56.00631470      17.11500433
Au      20.75723207      53.96631470      18.55750217
Au      21.67324914      56.78552536      18.55750217
Au      19.27508531      56.00631470      20.00000000
Au      23.15539590      54.74552536      17.11500433
Au      24.63754266      52.70552536      18.55750217
Au      25.55355973      55.52473602      18.55750217
Au      23.15539590      54.74552536      20.00000000
Au      27.03570649      53.48473602      17.11500433
Au      28.51785324      51.44473602      18.55750217
Au      27.03570649      53.48473602      20.00000000
Au       6.71813648      56.96947204      20.00000000
Au       8.20028324      54.92947204      21.44249783
Au       9.11630031      57.74868271      21.44249783
Au       6.71813648      56.96947204      22.88499567
Au      10.59844707      55.70868271      20.00000000
Au      12.08059382      53.66868271      21.44249783
Au      12.99661090      56.48789337      21.44249783
Au      10.59844707      55.70868271      22.88499567
Au      14.47875765      54.44789337      20.00000000
Au      15.96090441      52.40789337      21.44249783
Au      16.87692148      55.22710403      21.44249783
Au      14.47875765      54.44789337      22.88499567
Au      18.35906824      53.18710403      20.00000000
Au      19.84121500      51.14710403      21.44249783
Au      20.75723207      53.96631470      21.44249783
Au      18.35906824      53.18710403      22.88499567
Au      22.23937883      51.92631470      20.00000000
Au      23.72152558      49.88631470      21.44249783
Au      24.63754266      52.70552536      21.44249783
Au      22.23937883      51.92631470      22.88499567
Au      26.11968941      50.66552536      20.00000000
Au      28.51785324      51.44473602      21.44249783
Au      26.11968941      50.66552536      22.88499567
Au       5.80211941      54.15026138      22.88499567
Au       7.28426617      52.11026138      24.32749350
Au       8.20028324      54.92947204      24.32749350
Au       9.68243000      52.88947204      22.88499567
Au      11.16457675      50.84947204      24.32749350
Au      12.08059382      53.66868271      24.32749350
Au       9.68243000      52.88947204      25.76999133
Au      13.56274058      51.62868271      22.88499567
Au      15.04488734      49.58868271      24.32749350
Au      15.96090441      52.40789337      24.32749350
Au      13.56274058      51.62868271      25.76999133
Au      17.44305117      50.36789337      22.88499567
Au      18.92519793      48.32789337      24.32749350
Au      19.84121500      51.14710403      24.32749350
Au      17.44305117      50.36789337      25.76999133
Au      21.32336175      49.10710403      22.88499567
Au      23.72152558      49.88631470      24.32749350
Au      21.32336175      49.10710403      25.76999133
Au       8.76641292      50.07026138      25.76999133
Au      10.24855968      48.03026138      27.21248917
Au      11.16457675      50.84947204      27.21248917
Au      12.64672351      48.80947204      25.76999133
Au      14.12887027      46.76947204      27.21248917
Au      15.04488734      49.58868271      27.21248917
Au      12.64672351      48.80947204      28.65498700
Au      16.52703410      47.54868271      25.76999133
Au      18.92519793      48.32789337      27.21248917
Au      16.52703410      47.54868271      28.65498700
Au      11.73070644      45.99026138      28.65498700
Au      14.12887027      46.76947204      30.09748484
Au      15.74466211      64.94552536      15.67250650
Au      18.14282594      65.72473602      14.23000867
Au      19.62497270      63.68473602      15.67250650
Au      18.14282594      65.72473602      17.11500433
Au      10.94833445      63.38710403      18.55750217
Au      13.34649828      64.16631470      17.11500433
Au      14.82864504      62.12631470      18.55750217
Au      15.74466211      64.94552536      18.55750217
Au      13.34649828      64.16631470      20.00000000
Au      17.22680887      62.90552536      17.11500433
Au      18.70895563      60.86552536      18.55750217
Au      19.62497270      63.68473602      18.55750217
Au      17.22680887      62.90552536      20.00000000
Au      21.10711946      61.64473602      17.11500433
Au      22.58926621      59.60473602      18.55750217
Au      21.10711946      61.64473602      20.00000000
Au       8.55017063      62.60789337      20.00000000
Au      10.03231738      60.56789337      21.44249783
Au      10.94833445      63.38710403      21.44249783
Au      12.43048121      61.34710403      20.00000000
Au      13.91262797      59.30710403      21.44249783
Au      14.82864504      62.12631470      21.44249783
Au      12.43048121      61.34710403      22.88499567
Au      16.31079180      60.08631470      20.00000000
Au      17.79293856      58.04631470      21.44249783
Au      18.70895563      60.86552536      21.44249783
Au      16.31079180      60.08631470      22.88499567
Au      20.19110238      58.82552536      20.00000000
Au      21.67324914      56.78552536      21.44249783
Au      22.58926621      59.60473602      21.44249783
Au      20.19110238      58.82552536      22.88499567
Au      24.07141297      57.56473602      20.00000000
Au      25.55355973      55.52473602      21.44249783
Au      24.07141297      57.56473602      22.88499567
Au       7.63415355      59.78868271      22.88499567
Au       9.11630031      57.74868271      24.32749350
Au      10.03231738      60.56789337      24.32749350
Au      11.51446414      58.52789337      22.88499567
Au      12.99661090      56.48789337      24.32749350
Au      13.91262797      59.30710403      24.32749350
Au      11.51446414      58.52789337      25.76999133
Au      15.39477473      57.26710403      22.88499567
Au      16.87692148      55.22710403      24.32749350
Au      17.79293856      58.04631470      24.32749350
Au      15.39477473      57.26710403      25.76999133
Au      19.27508531      56.00631470      22.88499567
Au      20.75723207      53.96631470      24.32749350
Au      21.67324914      56.78552536      24.32749350
Au      19.27508531      56.00631470      25.76999133
Au      23.15539590      54.74552536      22.88499567
Au      24.63754266      52.70552536      24.32749350
Au      25.55355973      55.52473602      24.32749350
Au      23.15539590      54.74552536      25.76999133
Au      27.03570649      53.48473602      22.88499567
Au      28.51785324      51.44473602      24.32749350
Au      27.03570649      53.48473602      25.76999133
Au       6.71813648      56.96947204      25.76999133
Au       8.20028324      54.92947204      27.21248917
Au       9.11630031      57.74868271      27.21248917
Au      10.59844707      55.70868271      25.76999133
Au      12.08059382      53.66868271      27.21248917
Au      12.99661090      56.48789337      27.21248917
Au      10.59844707      55.70868271      28.65498700
Au      14.47875765      54.44789337      25.76999133
Au      15.96090441      52.40789337      27.21248917
Au      16.87692148      55.22710403      27.21248917
Au      14.47875765      54.44789337      28.65498700
Au      18.35906824      53.18710403      25.76999133
Au      19.84121500      51.14710403      27.21248917
Au      20.75723207      53.96631470      27.21248917
Au      18.35906824      53.18710403      28.65498700
Au      22.23937883      51.92631470      25.76999133
Au      23.72152558      49.88631470      27.21248917
Au      24.63754266      52.70552536      27.21248917
Au      22.23937883      51.92631470      28.65498700
Au      26.11968941      50.66552536      25.76999133
Au      28.51785324      51.44473602      27.21248917
Au      26.11968941      50.66552536      28.65498700
Au       9.68243000      52.88947204      28.65498700
Au      11.16457675      50.84947204      30.09748484
Au      12.08059382      53.66868271      30.09748484
Au      13.56274058      51.62868271      28.65498700
Au      15.04488734      49.58868271      30.09748484
Au      15.96090441      52.40789337      30.09748484
Au      13.56274058      51.62868271      31.53998267
Au      17.44305117      50.36789337      28.65498700
Au      18.92519793      48.32789337      30.09748484
Au      19.84121500      51.14710403      30.09748484
Au      17.44305117      50.36789337      31.53998267
Au      21.32336175      49.10710403      28.65498700
Au      23.72152558      49.88631470      30.09748484
Au      21.32336175      49.10710403      31.53998267
Au      12.64672351      48.80947204      31.53998267
Au      14.12887027      46.76947204      32.98248050
Au      15.04488734      49.58868271      32.98248050
Au      16.52703410      47.54868271      31.53998267
Au      18.92519793      48.32789337      32.98248050
Au      16.52703410      47.54868271      34.42497834
Au      15.74466211      64.94552536      21.44249783
Au      18.14282594      65.72473602      20.00000000
Au      19.62497270      63.68473602      21.44249783
Au      18.14282594      65.72473602      22.88499567
Au      13.34649828      64.16631470      22.88499567
Au      14.82864504      62.12631470      24.32749350
Au      15.74466211      64.94552536      24.32749350
Au      17.22680887      62.90552536      22.88499567
Au      18.70895563      60.86552536      24.32749350
Au      19.62497270      63.68473602      24.32749350
Au      17.22680887      62.90552536      25.76999133
Au      21.10711946      61.64473602      22.88499567
Au      22.58926621      59.60473602      24.32749350
Au      21.10711946      61.64473602      25.76999133
Au      12.43048121      61.34710403      25.76999133
Au      13.91262797      59.30710403      27.21248917
Au      14.82864504      62.12631470      27.21248917
Au      16.31079180      60.08631470      25.76999133
Au      17.79293856      58.04631470      27.21248917
Au      18.70895563      60.86552536      27.21248917
Au      16.31079180      60.08631470      28.65498700
Au      20.19110238      58.82552536      25.76999133
Au      21.67324914      56.78552536      27.21248917
Au      22.58926621      59.60473602      27.21248917
Au      20.19110238      58.82552536      28.65498700
Au      24.07141297      57.56473602      25.76999133
Au      25.55355973      55.52473602      27.21248917
Au      24.07141297      57.56473602      28.65498700
Au      11.51446414      58.52789337      28.65498700
Au      12.99661090      56.48789337      30.09748484
Au      13.91262797      59.30710403      30.09748484
Au      15.39477473      57.26710403      28.65498700
Au      16.87692148      55.22710403      30.09748484
Au      17.79293856      58.04631470      30.09748484
Au      15.39477473      57.26710403      31.53998267
Au      19.27508531      56.00631470      28.65498700
Au      20.75723207      53.96631470      30.09748484
Au      21.67324914      56.78552536      30.09748484
Au      19.27508531      56.00631470      31.53998267
Au      23.15539590      54.74552536      28.65498700
Au      24.63754266      52.70552536      30.09748484
Au      25.55355973      55.52473602      30.09748484
Au      23.15539590      54.74552536      31.53998267
Au      27.03570649      53.48473602      28.65498700
Au      28.51785324      51.44473602      30.09748484
Au      27.03570649      53.48473602      31.53998267
Au      14.47875765      54.44789337      31.53998267
Au      15.96090441      52.40789337      32.98248050
Au      16.87692148      55.22710403      32.98248050
Au      18.35906824      53.18710403      31.53998267
Au      19.84121500      51.14710403      32.98248050
Au      20.75723207      53.96631470      32.98248050
Au      18.35906824      53.18710403      34.42497834
Au      22.23937883      51.92631470      31.53998267
Au      23.72152558      49.88631470      32.98248050
Au      24.63754266      52.70552536      32.98248050
Au      22.23937883      51.92631470      34.42497834
Au      26.11968941      50.66552536      31.53998267
Au      28.51785324      51.44473602      32.98248050
Au      26.11968941      50.66552536      34.42497834
Au      17.44305117      50.36789337      34.42497834
Au      18.92519793      48.32789337      35.86747617
Au      19.84121500      51.14710403      35.86747617
Au      21.32336175      49.10710403      34.42497834
Au      23.72152558      49.88631470      35.86747617
Au      21.32336175      49.10710403      37.30997400
Au      18.14282594      65.72473602      25.76999133
Au      19.62497270      63.68473602      27.21248917
Au      17.22680887      62.90552536      28.65498700
Au      18.70895563      60.86552536      30.09748484
Au      19.62497270      63.68473602      30.09748484
Au      21.10711946      61.64473602      28.65498700
Au      22.58926621      59.60473602      30.09748484
Au      21.10711946      61.64473602      31.53998267
Au      16.31079180      60.08631470      31.53998267
Au      17.79293856      58.04631470      32.98248050
Au      18.70895563      60.86552536      32.98248050
Au      20.19110238      58.82552536      31.53998267
Au      21.67324914      56.78552536      32.98248050
Au      22.58926621      59.60473602      32.98248050
Au      20.19110238      58.82552536      34.42497834
Au      24.07141297      57.56473602      31.53998267
Au      25.55355973      55.52473602      32.98248050
Au      24.07141297      57.56473602      34.42497834
Au      19.27508531      56.00631470      34.42497834
Au      20.75723207      53.96631470      35.86747617
Au      21.67324914      56.78552536      35.86747617
Au      23.15539590      54.74552536      34.42497834
Au      24.63754266      52.70552536      35.86747617
Au      25.55355973      55.52473602      35.86747617
Au      23.15539590      54.74552536      37.30997400
Au      27.03570649      53.48473602      34.42497834
Au      28.51785324      51.44473602      35.86747617
Au      27.03570649      53.48473602      37.30997400
Au      22.23937883      51.92631470      37.30997400
Au      23.72152558      49.88631470      38.75247184
Au      24.63754266      52.70552536      38.75247184
Au      26.11968941      50.66552536      37.30997400
Au      28.51785324      51.44473602      38.75247184
Au      21.10711946      61.64473602      34.42497834
Au      22.58926621      59.60473602      35.86747617
Au      24.07141297      57.56473602      37.30997400
Au      25.55355973      55.52473602      38.75247184
Au      27.60183617      43.58236801       1.24752816
Au      27.60183617      41.06078934       2.69002600
Au      27.60183617      38.53921066       4.13252383
Au      27.60183617      36.01763199       5.57502166
Au      27.60183617      33.49605331       7.01751950
Au      25.20367234      45.32473602       1.24752816
Au      22.80550851      47.06710403       1.24752816
Au      22.80550851      44.54552536       2.69002600
Au      27.60183617      48.62552536       1.24752816
Au      25.20367234      47.84631470       2.69002600
Au      25.20367234      40.28157867       4.13252383
Au      22.80550851      42.02394669       4.13252383
Au      22.80550851      39.50236801       5.57502166
Au      25.20367234      42.80315735       2.69002600
Au      27.60183617      43.58236801       4.13252383
Au      25.20367234      45.32473602       4.13252383
Au      25.20367234      42.80315735       5.57502166
Au      27.60183617      46.10394669       2.69002600
Au      27.60183617      48.62552536       4.13252383
Au      27.60183617      46.10394669       5.57502166
Au      25.20367234      35.23842133       7.01751950
Au      22.80550851      36.98078934       7.01751950
Au      22.80550851      34.45921066       8.46001733
Au      25.20367234      37.76000000       5.57502166
Au      27.60183617      38.53921066       7.01751950
Au      25.20367234      40.28157867       7.01751950
Au      25.20367234      37.76000000       8.46001733
Au      27.60183617      41.06078934       5.57502166
Au      27.60183617      43.58236801       7.01751950
Au      27.60183617      41.06078934       8.46001733
Au      22.80550851      31.93763199       9.90251516
Au      25.20367234      32.71684265       8.46001733
Au      27.60183617      33.49605331       9.90251516
Au      25.20367234      35.23842133       9.90251516
Au      25.20367234      32.71684265      11.34501300
Au      27.60183617      36.01763199       8.46001733
Au      27.60183617      38.53921066       9.90251516
Au      27.60183617      36.01763199      11.34501300
Au      25.20367234      30.19526398      12.78751083
Au      27.60183617      30.97447464      11.34501300
Au      27.60183617      33.49605331      12.78751083
Au      27.60183617      30.97447464      14.23000867
Au      27.60183617      28.45289597      15.67250650
Au      20.40734468      43.76631470       4.13252383
Au      18.00918085      45.50868271       4.13252383
Au      18.00918085      42.98710403       5.57502166
Au      20.40734468      46.28789337       2.69002600
Au      22.80550851      47.06710403       4.13252383
Au      20.40734468      46.28789337       5.57502166
Au      20.40734468      38.72315735       7.01751950
Au      18.00918085      40.46552536       7.01751950
Au      18.00918085      37.94394669       8.46001733
Au      20.40734468      41.24473602       5.57502166
Au      22.80550851      42.02394669       7.01751950
Au      20.40734468      43.76631470       7.01751950
Au      20.40734468      41.24473602       8.46001733
Au      22.80550851      44.54552536       5.57502166
Au      25.20367234      45.32473602       7.01751950
Au      22.80550851      47.06710403       7.01751950
Au      22.80550851      44.54552536       8.46001733
Au      25.20367234      47.84631470       5.57502166
Au      27.60183617      48.62552536       7.01751950
Au      25.20367234      47.84631470       8.46001733
Au      20.40734468      33.68000000       9.90251516
Au      18.00918085      35.42236801       9.90251516
Au      18.00918085      32.90078934      11.34501300
Au      20.40734468      36.20157867       8.46001733
Au      22.80550851      36.98078934       9.90251516
Au      20.40734468      38.72315735       9.90251516
Au      20.40734468      36.20157867      11.34501300
Au      22.80550851      39.50236801       8.46001733
Au      25.20367234      40.28157867       9.90251516
Au      22.80550851      42.02394669       9.90251516
Au      22.80550851      39.50236801      11.34501300
Au      25.20367234      42.80315735       8.46001733
Au      27.60183617      43.58236801       9.90251516
Au      25.20367234      45.32473602       9.90251516
Au      25.20367234      42.80315735      11.34501300
Au      27.60183617      46.10394669       8.46001733
Au      27.60183617      48.62552536       9.90251516
Au      27.60183617      46.10394669      11.34501300
Au      18.00918085      30.37921066      12.78751083
Au      20.40734468      31.15842133      11.34501300
Au      22.80550851      31.93763199      12.78751083
Au      20.40734468      33.68000000      12.78751083
Au      20.40734468      31.15842133      14.23000867
Au      22.80550851      34.45921066      11.34501300
Au      25.20367234      35.23842133      12.78751083
Au      22.80550851      36.98078934      12.78751083
Au      22.80550851      34.45921066      14.23000867
Au      25.20367234      37.76000000      11.34501300
Au      27.60183617      38.53921066      12.78751083
Au      25.20367234      40.28157867      12.78751083
Au      25.20367234      37.76000000      14.23000867
Au      27.60183617      41.06078934      11.34501300
Au      27.60183617      43.58236801      12.78751083
Au      27.60183617      41.06078934      14.23000867
Au      20.40734468      28.63684265      15.67250650
Au      22.80550851      29.41605331      14.23000867
Au      25.20367234      30.19526398      15.67250650
Au      22.80550851      31.93763199      15.67250650
Au      22.80550851      29.41605331      17.11500433
Au      25.20367234      32.71684265      14.23000867
Au      27.60183617      33.49605331      15.67250650
Au      25.20367234      35.23842133      15.67250650
Au      25.20367234      32.71684265      17.11500433
Au      27.60183617      36.01763199      14.23000867
Au      27.60183617      38.53921066      15.67250650
Au      27.60183617      36.01763199      17.11500433
Au      22.80550851      26.89447464      18.55750217
Au      25.20367234      27.67368530      17.11500433
Au      27.60183617      28.45289597      18.55750217
Au      25.20367234      30.19526398      18.55750217
Au      25.20367234      27.67368530      20.00000000
Au      27.60183617      30.97447464      17.11500433
Au      27.60183617      33.49605331      18.55750217
Au      27.60183617      30.97447464      20.00000000
Au      27.60183617      28.45289597      21.44249783
Au      15.61101702      42.20789337       7.01751950
Au      15.61101702      44.72947204       5.57502166
Au      18.00918085      45.50868271       7.01751950
Au      15.61101702      44.72947204       8.46001733
Au      15.61101702      37.16473602       9.90251516
Au      15.61101702      39.68631470       8.46001733
Au      18.00918085      40.46552536       9.90251516
Au      15.61101702      42.20789337       9.90251516
Au      15.61101702      39.68631470      11.34501300
Au      18.00918085      42.98710403       8.46001733
Au      20.40734468      43.76631470       9.90251516
Au      18.00918085      45.50868271       9.90251516
Au      18.00918085      42.98710403      11.34501300
Au      20.40734468      46.28789337       8.46001733
Au      22.80550851      47.06710403       9.90251516
Au      20.40734468      46.28789337      11.34501300
Au      15.61101702      32.12157867      12.78751083
Au      15.61101702      34.64315735      11.34501300
Au      18.00918085      35.42236801      12.78751083
Au      15.61101702      37.16473602      12.78751083
Au      15.61101702      34.64315735      14.23000867
Au      18.00918085      37.94394669      11.34501300
Au      20.40734468      38.72315735      12.78751083
Au      18.00918085      40.46552536      12.78751083
Au      18.00918085      37.94394669      14.23000867
Au      20.40734468      41.24473602      11.34501300
Au      22.80550851      42.02394669      12.78751083
Au      20.40734468      43.76631470      12.78751083
Au      20.40734468      41.24473602      14.23000867
Au      22.80550851      44.54552536      11.34501300
Au      25.20367234      45.32473602      12.78751083
Au      22.80550851      47.06710403      12.78751083
Au      22.80550851      44.54552536      14.23000867
Au      25.20367234      47.84631470      11.34501300
Au      27.60183617      48.62552536      12.78751083
Au      25.20367234      47.84631470      14.23000867
Au      15.61101702      29.60000000      14.23000867
Au      18.00918085      30.37921066      15.67250650
Au      15.61101702      32.12157867      15.67250650
Au      15.61101702      29.60000000      17.11500433
Au      18.00918085      32.90078934      14.23000867
Au      20.40734468      33.68000000      15.67250650
Au      18.00918085      35.42236801      15.67250650
Au      18.00918085      32.90078934      17.11500433
Au      20.40734468      36.20157867      14.23000867
Au      22.80550851      36.98078934      15.67250650
Au      20.40734468      38.72315735      15.67250650
Au      20.40734468      36.20157867      17.11500433
Au      22.80550851      39.50236801      14.23000867
Au      25.20367234      40.28157867      15.67250650
Au      22.80550851      42.02394669      15.67250650
Au      22.80550851      39.50236801      17.11500433
Au      25.20367234      42.80315735      14.23000867
Au      27.60183617      43.58236801      15.67250650
Au      25.20367234      45.32473602      15.67250650
Au      25.20367234      42.80315735      17.11500433
Au      27.60183617      46.10394669      14.23000867
Au      27.60183617      48.62552536      15.67250650
Au      27.60183617      46.10394669      17.11500433
Au      18.00918085      27.85763199      17.11500433
Au      20.40734468      28.63684265      18.55750217
Au      18.00918085      30.37921066      18.55750217
Au      18.00918085      27.85763199      20.00000000
Au      20.40734468      31.15842133      17.11500433
Au      22.80550851      31.93763199      18.55750217
Au      20.40734468      33.68000000      18.55750217
Au      20.40734468      31.15842133      20.00000000
Au      22.80550851      34.45921066      17.11500433
Au      25.20367234      35.23842133      18.55750217
Au      22.80550851      36.98078934      18.55750217
Au      22.80550851      34.45921066      20.00000000
Au      25.20367234      37.76000000      17.11500433
Au      27.60183617      38.53921066      18.55750217
Au      25.20367234      40.28157867      18.55750217
Au      25.20367234      37.76000000      20.00000000
Au      27.60183617      41.06078934      17.11500433
Au      27.60183617      43.58236801      18.55750217
Au      27.60183617      41.06078934      20.00000000
Au      20.40734468      26.11526398      20.00000000
Au      22.80550851      26.89447464      21.44249783
Au      20.40734468      28.63684265      21.44249783
Au      22.80550851      29.41605331      20.00000000
Au      25.20367234      30.19526398      21.44249783
Au      22.80550851      31.93763199      21.44249783
Au      22.80550851      29.41605331      22.88499567
Au      25.20367234      32.71684265      20.00000000
Au      27.60183617      33.49605331      21.44249783
Au      25.20367234      35.23842133      21.44249783
Au      25.20367234      32.71684265      22.88499567
Au      27.60183617      36.01763199      20.00000000
Au      27.60183617      38.53921066      21.44249783
Au      27.60183617      36.01763199      22.88499567
Au      25.20367234      27.67368530      22.88499567
Au      27.60183617      28.45289597      24.32749350
Au      25.20367234      30.19526398      24.32749350
Au      27.60183617      30.97447464      22.88499567
Au      27.60183617      33.49605331      24.32749350
Au      27.60183617      30.97447464      25.76999133
Au      13.21285319      43.95026138       9.90251516
Au      13.21285319      38.90710403      12.78751083
Au      13.21285319      41.42868271      11.34501300
Au      15.61101702      42.20789337      12.78751083
Au      13.21285319      43.95026138      12.78751083
Au      13.21285319      41.42868271      14.23000867
Au      15.61101702      44.72947204      11.34501300
Au      18.00918085      45.50868271      12.78751083
Au      15.61101702      44.72947204      14.23000867
Au      13.21285319      33.86394669      15.67250650
Au      13.21285319      36.38552536      14.23000867
Au      15.61101702      37.16473602      15.67250650
Au      13.21285319      38.90710403      15.67250650
Au      13.21285319      36.38552536      17.11500433
Au      15.61101702      39.68631470      14.23000867
Au      18.00918085      40.46552536      15.67250650
Au      15.61101702      42.20789337      15.67250650
Au      15.61101702      39.68631470      17.11500433
Au      18.00918085      42.98710403      14.23000867
Au      20.40734468      43.76631470      15.67250650
Au      18.00918085      45.50868271      15.67250650
Au      18.00918085      42.98710403      17.11500433
Au      20.40734468      46.28789337      14.23000867
Au      22.80550851      47.06710403      15.67250650
Au      20.40734468      46.28789337      17.11500433
Au      13.21285319      31.34236801      17.11500433
Au      15.61101702      32.12157867      18.55750217
Au      13.21285319      33.86394669      18.55750217
Au      13.21285319      31.34236801      20.00000000
Au      15.61101702      34.64315735      17.11500433
Au      18.00918085      35.42236801      18.55750217
Au      15.61101702      37.16473602      18.55750217
Au      15.61101702      34.64315735      20.00000000
Au      18.00918085      37.94394669      17.11500433
Au      20.40734468      38.72315735      18.55750217
Au      18.00918085      40.46552536      18.55750217
Au      18.00918085      37.94394669      20.00000000
Au      20.40734468      41.24473602      17.11500433
Au      22.80550851      42.02394669      18.55750217
Au      20.40734468      43.76631470      18.55750217
Au      20.40734468      41.24473602      20.00000000
Au      22.80550851      44.54552536      17.11500433
Au      25.20367234      45.32473602      18.55750217
Au      22.80550851      47.06710403      18.55750217
Au      22.80550851      44.54552536      20.00000000
Au      25.20367234      47.84631470      17.11500433
Au      27.60183617      48.62552536      18.55750217
Au      25.20367234      47.84631470      20.00000000
Au      15.61101702      29.60000000      20.00000000
Au      18.00918085      30.37921066      21.44249783
Au      15.61101702      32.12157867      21.44249783
Au      15.61101702      29.60000000      22.88499567
Au      18.00918085      32.90078934      20.00000000
Au      20.40734468      33.68000000      21.44249783
Au      18.00918085      35.42236801      21.44249783
Au      18.00918085      32.90078934      22.88499567
Au      20.40734468      36.20157867      20.00000000
Au      22.80550851      36.98078934      21.44249783
Au      20.40734468      38.72315735      21.44249783
Au      20.40734468      36.20157867      22.88499567
Au      22.80550851      39.50236801      20.00000000
Au      25.20367234      40.28157867      21.44249783
Au      22.80550851      42.02394669      21.44249783
Au      22.80550851      39.50236801      22.88499567
Au      25.20367234      42.80315735      20.00000000
Au      27.60183617      43.58236801      21.44249783
Au      25.20367234      45.32473602      21.44249783
Au      25.20367234      42.80315735      22.88499567
Au      27.60183617      46.10394669      20.00000000
Au      27.60183617      48.62552536      21.44249783
Au      27.60183617      46.10394669      22.88499567
Au      18.00918085      27.85763199      22.88499567
Au      20.40734468      28.63684265      24.32749350
Au      18.00918085      30.37921066      24.32749350
Au      20.40734468      31.15842133      22.88499567
Au      22.80550851      31.93763199      24.32749350
Au      20.40734468      33.68000000      24.32749350
Au      20.40734468      31.15842133      25.76999133
Au      22.80550851      34.45921066      22.88499567
Au      25.20367234      35.23842133      24.32749350
Au      22.80550851      36.98078934      24.32749350
Au      22.80550851      34.45921066      25.76999133
Au      25.20367234      37.76000000      22.88499567
Au      27.60183617      38.53921066      24.32749350
Au      25.20367234      40.28157867      24.32749350
Au      25.20367234      37.76000000      25.76999133
Au      27.60183617      41.06078934      22.88499567
Au      27.60183617      43.58236801      24.32749350
Au      27.60183617      41.06078934      25.76999133
Au      22.80550851      29.41605331      25.76999133
Au      25.20367234      30.19526398      27.21248917
Au      22.80550851      31.93763199      27.21248917
Au      25.20367234      32.71684265      25.76999133
Au      27.60183617      33.49605331      27.21248917
Au      25.20367234      35.23842133      27.21248917
Au      25.20367234      32.71684265      28.65498700
Au      27.60183617      36.01763199      25.76999133
Au      27.60183617      38.53921066      27.21248917
Au      27.60183617      36.01763199      28.65498700
Au      27.60183617      30.97447464      28.65498700
Au      27.60183617      33.49605331      30.09748484
Au      10.81468937      40.64947204      15.67250650
Au      10.81468937      43.17105072      14.23000867
Au      13.21285319      43.95026138      15.67250650
Au      10.81468937      43.17105072      17.11500433
Au      10.81468937      35.60631470      18.55750217
Au      10.81468937      38.12789337      17.11500433
Au      13.21285319      38.90710403      18.55750217
Au      10.81468937      40.64947204      18.55750217
Au      10.81468937      38.12789337      20.00000000
Au      13.21285319      41.42868271      17.11500433
Au      15.61101702      42.20789337      18.55750217
Au      13.21285319      43.95026138      18.55750217
Au      13.21285319      41.42868271      20.00000000
Au      15.61101702      44.72947204      17.11500433
Au      18.00918085      45.50868271      18.55750217
Au      15.61101702      44.72947204      20.00000000
Au      10.81468937      33.08473602      20.00000000
Au      13.21285319      33.86394669      21.44249783
Au      10.81468937      35.60631470      21.44249783
Au      13.21285319      36.38552536      20.00000000
Au      15.61101702      37.16473602      21.44249783
Au      13.21285319      38.90710403      21.44249783
Au      13.21285319      36.38552536      22.88499567
Au      15.61101702      39.68631470      20.00000000
Au      18.00918085      40.46552536      21.44249783
Au      15.61101702      42.20789337      21.44249783
Au      15.61101702      39.68631470      22.88499567
Au      18.00918085      42.98710403      20.00000000
Au      20.40734468      43.76631470      21.44249783
Au      18.00918085      45.50868271      21.44249783
Au      18.00918085      42.98710403      22.88499567
Au      20.40734468      46.28789337      20.00000000
Au      22.80550851      47.06710403      21.44249783
Au      20.40734468      46.28789337      22.88499567
Au      13.21285319      31.34236801      22.88499567
Au      15.61101702      32.12157867      24.32749350
Au      13.21285319      33.86394669      24.32749350
Au      15.61101702      34.64315735      22.88499567
Au      18.00918085      35.42236801      24.32749350
Au      15.61101702      37.16473602      24.32749350
Au      15.61101702      34.64315735      25.76999133
Au      18.00918085      37.94394669      22.88499567
Au      20.40734468      38.72315735      24.32749350
Au      18.00918085      40.46552536      24.32749350
Au      18.00918085      37.94394669      25.76999133
Au      20.40734468      41.24473602      22.88499567
Au      22.80550851      42.02394669      24.32749350
Au      20.40734468      43.76631470      24.32749350
Au      20.40734468      41.24473602      25.76999133
Au      22.80550851      44.54552536      22.88499567
Au      25.20367234      45.32473602      24.32749350
Au      22.80550851      47.06710403      24.32749350
Au      22.80550851      44.54552536      25.76999133
Au      25.20367234      47.84631470      22.88499567
Au      27.60183617      48.62552536      24.32749350
Au      25.20367234      47.84631470      25.76999133
Au      15.61101702      29.60000000      25.76999133
Au      18.00918085      30.37921066      27.21248917
Au      15.61101702      32.12157867      27.21248917
Au      18.00918085      32.90078934      25.76999133
Au      20.40734468      33.68000000      27.21248917
Au      18.00918085      35.42236801      27.21248917
Au      18.00918085      32.90078934      28.65498700
Au      20.40734468      36.20157867      25.76999133
Au      22.80550851      36.98078934      27.21248917
Au      20.40734468      38.72315735      27.21248917
Au      20.40734468      36.20157867      28.65498700
Au      22.80550851      39.50236801      25.76999133
Au      25.20367234      40.28157867      27.21248917
Au      22.80550851      42.02394669      27.21248917
Au      22.80550851      39.50236801      28.65498700
Au      25.20367234      42.80315735      25.76999133
Au      27.60183617      43.58236801      27.21248917
Au      25.20367234      45.32473602      27.21248917
Au      25.20367234      42.80315735      28.65498700
Au      27.60183617      46.10394669      25.76999133
Au      27.60183617      48.62552536      27.21248917
Au      27.60183617      46.10394669      28.65498700
Au      20.40734468      31.15842133      28.65498700
Au      22.80550851      31.93763199      30.09748484
Au      20.40734468      33.68000000      30.09748484
Au      22.80550851      34.45921066      28.65498700
Au      25.20367234      35.23842133      30.09748484
Au      22.80550851      36.98078934      30.09748484
Au      22.80550851      34.45921066      31.53998267
Au      25.20367234      37.76000000      28.65498700
Au      27.60183617      38.53921066      30.09748484
Au      25.20367234      40.28157867      30.09748484
Au      25.20367234      37.76000000      31.53998267
Au      27.60183617      41.06078934      28.65498700
Au      27.60183617      43.58236801      30.09748484
Au      27.60183617      41.06078934      31.53998267
Au      25.20367234      32.71684265      31.53998267
Au      27.60183617      33.49605331      32.98248050
Au      25.20367234      35.23842133      32.98248050
Au      27.60183617      36.01763199      31.53998267
Au      27.60183617      38.53921066      32.98248050
Au      27.60183617      36.01763199      34.42497834
Au      10.81468937      40.64947204      21.44249783
Au      10.81468937      43.17105072      20.00000000
Au      13.21285319      43.95026138      21.44249783
Au      10.81468937      43.17105072      22.88499567
Au      10.81468937      38.12789337      22.88499567
Au      13.21285319      38.90710403      24.32749350
Au      10.81468937      40.64947204      24.32749350
Au      13.21285319      41.42868271      22.88499567
Au      15.61101702      42.20789337      24.32749350
Au      13.21285319      43.95026138      24.32749350
Au      13.21285319      41.42868271      25.76999133
Au      15.61101702      44.72947204      22.88499567
Au      18.00918085      45.50868271      24.32749350
Au      15.61101702      44.72947204      25.76999133
Au      13.21285319      36.38552536      25.76999133
Au      15.61101702      37.16473602      27.21248917
Au      13.21285319      38.90710403      27.21248917
Au      15.61101702      39.68631470      25.76999133
Au      18.00918085      40.46552536      27.21248917
Au      15.61101702      42.20789337      27.21248917
Au      15.61101702      39.68631470      28.65498700
Au      18.00918085      42.98710403      25.76999133
Au      20.40734468      43.76631470      27.21248917
Au      18.00918085      45.50868271      27.21248917
Au      18.00918085      42.98710403      28.65498700
Au      20.40734468      46.28789337      25.76999133
Au      22.80550851      47.06710403      27.21248917
Au      20.40734468      46.28789337      28.65498700
Au      15.61101702      34.64315735      28.65498700
Au      18.00918085      35.42236801      30.09748484
Au      15.61101702      37.16473602      30.09748484
Au      18.00918085      37.94394669      28.65498700
Au      20.40734468      38.72315735      30.09748484
Au      18.00918085      40.46552536      30.09748484
Au      18.00918085      37.94394669      31.53998267
Au      20.40734468      41.24473602      28.65498700
Au      22.80550851      42.02394669      30.09748484
Au      20.40734468      43.76631470      30.09748484
Au      20.40734468      41.24473602      31.53998267
Au      22.80550851      44.54552536      28.65498700
Au      25.20367234      45.32473602      30.09748484
Au      22.80550851      47.06710403      30.09748484
Au      22.80550851      44.54552536      31.53998267
Au      25.20367234      47.84631470      28.65498700
Au      27.60183617      48.62552536      30.09748484
Au      25.20367234      47.84631470      31.53998267
Au      20.40734468      36.20157867      31.53998267
Au      22.80550851      36.98078934      32.98248050
Au      20.40734468      38.72315735      32.98248050
Au      22.80550851      39.50236801      31.53998267
Au      25.20367234      40.28157867      32.98248050
Au      22.80550851      42.02394669      32.98248050
Au      22.80550851      39.50236801      34.42497834
Au      25.20367234      42.80315735      31.53998267
Au      27.60183617      43.58236801      32.98248050
Au      25.20367234      45.32473602      32.98248050
Au      25.20367234      42.80315735      34.42497834
Au      27.60183617      46.10394669      31.53998267
Au      27.60183617      48.62552536      32.98248050
Au      27.60183617      46.10394669      34.42497834
Au      25.20367234      37.76000000      34.42497834
Au      27.60183617      38.53921066      35.86747617
Au      25.20367234      40.28157867      35.86747617
Au      27.60183617      41.06078934      34.42497834
Au      27.60183617      43.58236801      35.86747617
Au      27.60183617      41.06078934      37.30997400
Au      10.81468937      43.17105072      25.76999133
Au      13.21285319      43.95026138      27.21248917
Au      13.21285319      41.42868271      28.65498700
Au      15.61101702      42.20789337      30.09748484
Au      13.21285319      43.95026138      30.09748484
Au      15.61101702      44.72947204      28.65498700
Au      18.00918085      45.50868271      30.09748484
Au      15.61101702      44.72947204      31.53998267
Au      15.61101702      39.68631470      31.53998267
Au      18.00918085      40.46552536      32.98248050
Au      15.61101702      42.20789337      32.98248050
Au      18.00918085      42.98710403      31.53998267
Au      20.40734468      43.76631470      32.98248050
Au      18.00918085      45.50868271      32.98248050
Au      18.00918085      42.98710403      34.42497834
Au      20.40734468      46.28789337      31.53998267
Au      22.80550851      47.06710403      32.98248050
Au      20.40734468      46.28789337      34.42497834
Au      20.40734468      41.24473602      34.42497834
Au      22.80550851      42.02394669      35.86747617
Au      20.40734468      43.76631470      35.86747617
Au      22.80550851      44.54552536      34.42497834
Au      25.20367234      45.32473602      35.86747617
Au      22.80550851      47.06710403      35.86747617
Au      22.80550851      44.54552536      37.30997400
Au      25.20367234      47.84631470      34.42497834
Au      27.60183617      48.62552536      35.86747617
Au      25.20367234      47.84631470      37.30997400
Au      25.20367234      42.80315735      37.30997400
Au      27.60183617      43.58236801      38.75247184
Au      25.20367234      45.32473602      38.75247184
Au      27.60183617      46.10394669      37.30997400
Au      27.60183617      48.62552536      38.75247184
Au      15.61101702      44.72947204      34.42497834
Au      18.00918085      45.50868271      35.86747617
Au      20.40734468      46.28789337      37.30997400
Au      22.80550851      47.06710403      38.75247184
Au      34.79632766      45.32473602       1.24752816
Au      37.19449149      44.54552536       2.69002600
Au      39.59265532      43.76631470       4.13252383
Au      41.99081915      42.98710403       5.57502166
Au      44.38898298      42.20789337       7.01751950
Au      32.39816383      43.58236801       1.24752816
Au      30.00000000      41.84000000       1.24752816
Au      32.39816383      41.06078934       2.69002600
Au      30.00000000      46.88315735       1.24752816
Au      30.00000000      44.36157867       2.69002600
Au      37.19449149      42.02394669       4.13252383
Au      34.79632766      40.28157867       4.13252383
Au      37.19449149      39.50236801       5.57502166
Au      34.79632766      42.80315735       2.69002600
Au      34.79632766      45.32473602       4.13252383
Au      32.39816383      43.58236801       4.13252383
Au      34.79632766      42.80315735       5.57502166
Au      32.39816383      46.10394669       2.69002600
Au      30.00000000      46.88315735       4.13252383
Au      32.39816383      46.10394669       5.57502166
Au      41.99081915      40.46552536       7.01751950
Au      39.59265532      38.72315735       7.01751950
Au      41.99081915      37.94394669       8.46001733
Au      39.59265532      41.24473602       5.57502166
Au      39.59265532      43.76631470       7.01751950
Au      37.19449149      42.02394669       7.01751950
Au      39.59265532      41.24473602       8.46001733
Au      37.19449149      44.54552536       5.57502166
Au      34.79632766      45.32473602       7.01751950
Au      37.19449149      44.54552536       8.46001733
Au      44.38898298      37.16473602       9.90251516
Au      44.38898298      39.68631470       8.46001733
Au      44.38898298      42.20789337       9.90251516
Au      41.99081915      40.46552536       9.90251516
Au      44.38898298      39.68631470      11.34501300
Au      41.99081915      42.98710403       8.46001733
Au      39.59265532      43.76631470       9.90251516
Au      41.99081915      42.98710403      11.34501300
Au      46.78714681      38.90710403      12.78751083
Au      46.78714681      41.42868271      11.34501300
Au      44.38898298      42.20789337      12.78751083
Au      46.78714681      41.42868271      14.23000867
Au      49.18531063      40.64947204      15.67250650
Au      32.39816383      38.53921066       4.13252383
Au      30.00000000      36.79684265       4.13252383
Au      32.39816383      36.01763199       5.57502166
Au      30.00000000      39.31842133       2.69002600
Au      30.00000000      41.84000000       4.13252383
Au      30.00000000      39.31842133       5.57502166
Au      37.19449149      36.98078934       7.01751950
Au      34.79632766      35.23842133       7.01751950
Au      37.19449149      34.45921066       8.46001733
Au      34.79632766      37.76000000       5.57502166
Au      34.79632766      40.28157867       7.01751950
Au      32.39816383      38.53921066       7.01751950
Au      34.79632766      37.76000000       8.46001733
Au      32.39816383      41.06078934       5.57502166
Au      32.39816383      43.58236801       7.01751950
Au      30.00000000      41.84000000       7.01751950
Au      32.39816383      41.06078934       8.46001733
Au      30.00000000      44.36157867       5.57502166
Au      30.00000000      46.88315735       7.01751950
Au      30.00000000      44.36157867       8.46001733
Au      41.99081915      35.42236801       9.90251516
Au      39.59265532      33.68000000       9.90251516
Au      41.99081915      32.90078934      11.34501300
Au      39.59265532      36.20157867       8.46001733
Au      39.59265532      38.72315735       9.90251516
Au      37.19449149      36.98078934       9.90251516
Au      39.59265532      36.20157867      11.34501300
Au      37.19449149      39.50236801       8.46001733
Au      37.19449149      42.02394669       9.90251516
Au      34.79632766      40.28157867       9.90251516
Au      37.19449149      39.50236801      11.34501300
Au      34.79632766      42.80315735       8.46001733
Au      34.79632766      45.32473602       9.90251516
Au      32.39816383      43.58236801       9.90251516
Au      34.79632766      42.80315735      11.34501300
Au      32.39816383      46.10394669       8.46001733
Au      30.00000000      46.88315735       9.90251516
Au      32.39816383      46.10394669      11.34501300
Au      44.38898298      32.12157867      12.78751083
Au      44.38898298      34.64315735      11.34501300
Au      44.38898298      37.16473602      12.78751083
Au      41.99081915      35.42236801      12.78751083
Au      44.38898298      34.64315735      14.23000867
Au      41.99081915      37.94394669      11.34501300
Au      41.99081915      40.46552536      12.78751083
Au      39.59265532      38.72315735      12.78751083
Au      41.99081915      37.94394669      14.23000867
Au      39.59265532      41.24473602      11.34501300
Au      39.59265532      43.76631470      12.78751083
Au      37.19449149      42.02394669      12.78751083
Au      39.59265532      41.24473602      14.23000867
Au      37.19449149      44.54552536      11.34501300
Au      34.79632766      45.32473602      12.78751083
Au      37.19449149      44.54552536      14.23000867
Au      46.78714681      33.86394669      15.67250650
Au      46.78714681      36.38552536      14.23000867
Au      46.78714681      38.90710403      15.67250650
Au      44.38898298      37.16473602      15.67250650
Au      46.78714681      36.38552536      17.11500433
Au      44.38898298      39.68631470      14.23000867
Au      44.38898298      42.20789337      15.67250650
Au      41.99081915      40.46552536      15.67250650
Au      44.38898298      39.68631470      17.11500433
Au      41.99081915      42.98710403      14.23000867
Au      39.59265532      43.76631470      15.67250650
Au      41.99081915      42.98710403      17.11500433
Au      49.18531063      35.60631470      18.55750217
Au      49.18531063      38.12789337      17.11500433
Au      49.18531063      40.64947204      18.55750217
Au      46.78714681      38.90710403      18.55750217
Au      49.18531063      38.12789337      20.00000000
Au      46.78714681      41.42868271      17.11500433
Au      44.38898298      42.20789337      18.55750217
Au      46.78714681      41.42868271      20.00000000
Au      49.18531063      40.64947204      21.44249783
Au      32.39816383      33.49605331       7.01751950
Au      30.00000000      34.27526398       5.57502166
Au      30.00000000      36.79684265       7.01751950
Au      30.00000000      34.27526398       8.46001733
Au      37.19449149      31.93763199       9.90251516
Au      34.79632766      32.71684265       8.46001733
Au      34.79632766      35.23842133       9.90251516
Au      32.39816383      33.49605331       9.90251516
Au      34.79632766      32.71684265      11.34501300
Au      32.39816383      36.01763199       8.46001733
Au      32.39816383      38.53921066       9.90251516
Au      30.00000000      36.79684265       9.90251516
Au      32.39816383      36.01763199      11.34501300
Au      30.00000000      39.31842133       8.46001733
Au      30.00000000      41.84000000       9.90251516
Au      30.00000000      39.31842133      11.34501300
Au      41.99081915      30.37921066      12.78751083
Au      39.59265532      31.15842133      11.34501300
Au      39.59265532      33.68000000      12.78751083
Au      37.19449149      31.93763199      12.78751083
Au      39.59265532      31.15842133      14.23000867
Au      37.19449149      34.45921066      11.34501300
Au      37.19449149      36.98078934      12.78751083
Au      34.79632766      35.23842133      12.78751083
Au      37.19449149      34.45921066      14.23000867
Au      34.79632766      37.76000000      11.34501300
Au      34.79632766      40.28157867      12.78751083
Au      32.39816383      38.53921066      12.78751083
Au      34.79632766      37.76000000      14.23000867
Au      32.39816383      41.06078934      11.34501300
Au      32.39816383      43.58236801      12.78751083
Au      30.00000000      41.84000000      12.78751083
Au      32.39816383      41.06078934      14.23000867
Au      30.00000000      44.36157867      11.34501300
Au      30.00000000      46.88315735      12.78751083
Au      30.00000000      44.36157867      14.23000867
Au      44.38898298      29.60000000      14.23000867
Au      44.38898298      32.12157867      15.67250650
Au      41.99081915      30.37921066      15.67250650
Au      44.38898298      29.60000000      17.11500433
Au      41.99081915      32.90078934      14.23000867
Au      41.99081915      35.42236801      15.67250650
Au      39.59265532      33.68000000      15.67250650
Au      41.99081915      32.90078934      17.11500433
Au      39.59265532      36.20157867      14.23000867
Au      39.59265532      38.72315735      15.67250650
Au      37.19449149      36.98078934      15.67250650
Au      39.59265532      36.20157867      17.11500433
Au      37.19449149      39.50236801      14.23000867
Au      37.19449149      42.02394669      15.67250650
Au      34.79632766      40.28157867      15.67250650
Au      37.19449149      39.50236801      17.11500433
Au      34.79632766      42.80315735      14.23000867
Au      34.79632766      45.32473602      15.67250650
Au      32.39816383      43.58236801      15.67250650
Au      34.79632766      42.80315735      17.11500433
Au      32.39816383      46.10394669      14.23000867
Au      30.00000000      46.88315735      15.67250650
Au      32.39816383      46.10394669      17.11500433
Au      46.78714681      31.34236801      17.11500433
Au      46.78714681      33.86394669      18.55750217
Au      44.38898298      32.12157867      18.55750217
Au      46.78714681      31.34236801      20.00000000
Au      44.38898298      34.64315735      17.11500433
Au      44.38898298      37.16473602      18.55750217
Au      41.99081915      35.42236801      18.55750217
Au      44.38898298      34.64315735      20.00000000
Au      41.99081915      37.94394669      17.11500433
Au      41.99081915      40.46552536      18.55750217
Au      39.59265532      38.72315735      18.55750217
Au      41.99081915      37.94394669      20.00000000
Au      39.59265532      41.24473602      17.11500433
Au      39.59265532      43.76631470      18.55750217
Au      37.19449149      42.02394669      18.55750217
Au      39.59265532      41.24473602      20.00000000
Au      37.19449149      44.54552536      17.11500433
Au      34.79632766      45.32473602      18.55750217
Au      37.19449149      44.54552536      20.00000000
Au      49.18531063      33.08473602      20.00000000
Au      49.18531063      35.60631470      21.44249783
Au      46.78714681      33.86394669      21.44249783
Au      46.78714681      36.38552536      20.00000000
Au      46.78714681      38.90710403      21.44249783
Au      44.38898298      37.16473602      21.44249783
Au      46.78714681      36.38552536      22.88499567
Au      44.38898298      39.68631470      20.00000000
Au      44.38898298      42.20789337      21.44249783
Au      41.99081915      40.46552536      21.44249783
Au      44.38898298      39.68631470      22.88499567
Au      41.99081915      42.98710403      20.00000000
Au      39.59265532      43.76631470      21.44249783
Au      41.99081915      42.98710403      22.88499567
Au      49.18531063      38.12789337      22.88499567
Au      49.18531063      40.64947204      24.32749350
Au      46.78714681      38.90710403      24.32749350
Au      46.78714681      41.42868271      22.88499567
Au      44.38898298      42.20789337      24.32749350
Au      46.78714681      41.42868271      25.76999133
Au      30.00000000      31.75368530       9.90251516
Au      34.79632766      30.19526398      12.78751083
Au      32.39816383      30.97447464      11.34501300
Au      32.39816383      33.49605331      12.78751083
Au      30.00000000      31.75368530      12.78751083
Au      32.39816383      30.97447464      14.23000867
Au      30.00000000      34.27526398      11.34501300
Au      30.00000000      36.79684265      12.78751083
Au      30.00000000      34.27526398      14.23000867
Au      39.59265532      28.63684265      15.67250650
Au      37.19449149      29.41605331      14.23000867
Au      37.19449149      31.93763199      15.67250650
Au      34.79632766      30.19526398      15.67250650
Au      37.19449149      29.41605331      17.11500433
Au      34.79632766      32.71684265      14.23000867
Au      34.79632766      35.23842133      15.67250650
Au      32.39816383      33.49605331      15.67250650
Au      34.79632766      32.71684265      17.11500433
Au      32.39816383      36.01763199      14.23000867
Au      32.39816383      38.53921066      15.67250650
Au      30.00000000      36.79684265      15.67250650
Au      32.39816383      36.01763199      17.11500433
Au      30.00000000      39.31842133      14.23000867
Au      30.00000000      41.84000000      15.67250650
Au      30.00000000      39.31842133      17.11500433
Au      41.99081915      27.85763199      17.11500433
Au      41.99081915      30.37921066      18.55750217
Au      39.59265532      28.63684265      18.55750217
Au      41.99081915      27.85763199      20.00000000
Au      39.59265532      31.15842133      17.11500433
Au      39.59265532      33.68000000      18.55750217
Au      37.19449149      31.93763199      18.55750217
Au      39.59265532      31.15842133      20.00000000
Au      37.19449149      34.45921066      17.11500433
Au      37.19449149      36.98078934      18.55750217
Au      34.79632766      35.23842133      18.55750217
Au      37.19449149      34.45921066      20.00000000
Au      34.79632766      37.76000000      17.11500433
Au      34.79632766      40.28157867      18.55750217
Au      32.39816383      38.53921066      18.55750217
Au      34.79632766      37.76000000      20.00000000
Au      32.39816383      41.06078934      17.11500433
Au      32.39816383      43.58236801      18.55750217
Au      30.00000000      41.84000000      18.55750217
Au      32.39816383      41.06078934      20.00000000
Au      30.00000000      44.36157867      17.11500433
Au      30.00000000      46.88315735      18.55750217
Au      30.00000000      44.36157867      20.00000000
Au      44.38898298      29.60000000      20.00000000
Au      44.38898298      32.12157867      21.44249783
Au      41.99081915      30.37921066      21.44249783
Au      44.38898298      29.60000000      22.88499567
Au      41.99081915      32.90078934      20.00000000
Au      41.99081915      35.42236801      21.44249783
Au      39.59265532      33.68000000      21.44249783
Au      41.99081915      32.90078934      22.88499567
Au      39.59265532      36.20157867      20.00000000
Au      39.59265532      38.72315735      21.44249783
Au      37.19449149      36.98078934      21.44249783
Au      39.59265532      36.20157867      22.88499567
Au      37.19449149      39.50236801      20.00000000
Au      37.19449149      42.02394669      21.44249783
Au      34.79632766      40.28157867      21.44249783
Au      37.19449149      39.50236801      22.88499567
Au      34.79632766      42.80315735      20.00000000
Au      34.79632766      45.32473602      21.44249783
Au      32.39816383      43.58236801      21.44249783
Au      34.79632766      42.80315735      22.88499567
Au      32.39816383      46.10394669      20.00000000
Au      30.00000000      46.88315735      21.44249783
Au      32.39816383      46.10394669      22.88499567
Au      46.78714681      31.34236801      22.88499567
Au      46.78714681      33.86394669      24.32749350
Au      44.38898298      32.12157867      24.32749350
Au      44.38898298      34.64315735      22.88499567
Au      44.38898298      37.16473602      24.32749350
Au      41.99081915      35.42236801      24.32749350
Au      44.38898298      34.64315735      25.76999133
Au      41.99081915      37.94394669      22.88499567
Au      41.99081915      40.46552536      24.32749350
Au      39.59265532      38.72315735      24.32749350
Au      41.99081915      37.94394669      25.76999133
Au      39.59265532      41.24473602      22.88499567
Au      39.59265532      43.76631470      24.32749350
Au      37.19449149      42.02394669      24.32749350
Au      39.59265532      41.24473602      25.76999133
Au      37.19449149      44.54552536      22.88499567
Au      34.79632766      45.32473602      24.32749350
Au      37.19449149      44.54552536      25.76999133
Au      46.78714681      36.38552536      25.76999133
Au      46.78714681      38.90710403      27.21248917
Au      44.38898298      37.16473602      27.21248917
Au      44.38898298      39.68631470      25.76999133
Au      44.38898298      42.20789337      27.21248917
Au      41.99081915      40.46552536      27.21248917
Au      44.38898298      39.68631470      28.65498700
Au      41.99081915      42.98710403      25.76999133
Au      39.59265532      43.76631470      27.21248917
Au      41.99081915      42.98710403      28.65498700
Au      46.78714681      41.42868271      28.65498700
Au      44.38898298      42.20789337      30.09748484
Au      32.39816383      28.45289597      15.67250650
Au      30.00000000      29.23210663      14.23000867
Au      30.00000000      31.75368530      15.67250650
Au      30.00000000      29.23210663      17.11500433
Au      37.19449149      26.89447464      18.55750217
Au      34.79632766      27.67368530      17.11500433
Au      34.79632766      30.19526398      18.55750217
Au      32.39816383      28.45289597      18.55750217
Au      34.79632766      27.67368530      20.00000000
Au      32.39816383      30.97447464      17.11500433
Au      32.39816383      33.49605331      18.55750217
Au      30.00000000      31.75368530      18.55750217
Au      32.39816383      30.97447464      20.00000000
Au      30.00000000      34.27526398      17.11500433
Au      30.00000000      36.79684265      18.55750217
Au      30.00000000      34.27526398      20.00000000
Au      39.59265532      26.11526398      20.00000000
Au      39.59265532      28.63684265      21.44249783
Au      37.19449149      26.89447464      21.44249783
Au      37.19449149      29.41605331      20.00000000
Au      37.19449149      31.93763199      21.44249783
Au      34.79632766      30.19526398      21.44249783
Au      37.19449149      29.41605331      22.88499567
Au      34.79632766      32.71684265      20.00000000
Au      34.79632766      35.23842133      21.44249783
Au      32.39816383      33.49605331      21.44249783
Au      34.79632766      32.71684265      22.88499567
Au      32.39816383      36.01763199      20.00000000
Au      32.39816383      38.53921066      21.44249783
Au      30.00000000      36.79684265      21.44249783
Au      32.39816383      36.01763199      22.88499567
Au      30.00000000      39.31842133      20.00000000
Au      30.00000000      41.84000000      21.44249783
Au      30.00000000      39.31842133      22.88499567
Au      41.99081915      27.85763199      22.88499567
Au      41.99081915      30.37921066      24.32749350
Au      39.59265532      28.63684265      24.32749350
Au      39.59265532      31.15842133      22.88499567
Au      39.59265532      33.68000000      24.32749350
Au      37.19449149      31.93763199      24.32749350
Au      39.59265532      31.15842133      25.76999133
Au      37.19449149      34.45921066      22.88499567
Au      37.19449149      36.98078934      24.32749350
Au      34.79632766      35.23842133      24.32749350
Au      37.19449149      34.45921066      25.76999133
Au      34.79632766      37.76000000      22.88499567
Au      34.79632766      40.28157867      24.32749350
Au      32.39816383      38.53921066      24.32749350
Au      34.79632766      37.76000000      25.76999133
Au      32.39816383      41.06078934      22.88499567
Au      32.39816383      43.58236801      24.32749350
Au      30.00000000      41.84000000      24.32749350
Au      32.39816383      41.06078934      25.76999133
Au      30.00000000      44.36157867      22.88499567
Au      30.00000000      46.88315735      24.32749350
Au      30.00000000      44.36157867      25.76999133
Au      44.38898298      29.60000000      25.76999133
Au      44.38898298      32.12157867      27.21248917
Au      41.99081915      30.37921066      27.21248917
Au      41.99081915      32.90078934      25.76999133
Au      41.99081915      35.42236801      27.21248917
Au      39.59265532      33.68000000      27.21248917
Au      41.99081915      32.90078934      28.65498700
Au      39.59265532      36.20157867      25.76999133
Au      39.59265532      38.72315735      27.21248917
Au      37.19449149      36.98078934      27.21248917
Au      39.59265532      36.20157867      28.65498700
Au      37.19449149      39.50236801      25.76999133
Au      37.19449149      42.02394669      27.21248917
Au      34.79632766      40.28157867      27.21248917
Au      37.19449149      39.50236801      28.65498700
Au      34.79632766      42.80315735      25.76999133
Au      34.79632766      45.32473602      27.21248917
Au      32.39816383      43.58236801      27.21248917
Au      34.79632766      42.80315735      28.65498700
Au      32.39816383      46.10394669      25.76999133
Au      30.00000000      46.88315735      27.21248917
Au      32.39816383      46.10394669      28.65498700
Au      44.38898298      34.64315735      28.65498700
Au      44.38898298      37.16473602      30.09748484
Au      41.99081915      35.42236801      30.09748484
Au      41.99081915      37.94394669      28.65498700
Au      41.99081915      40.46552536      30.09748484
Au      39.59265532      38.72315735      30.09748484
Au      41.99081915      37.94394669      31.53998267
Au      39.59265532      41.24473602      28.65498700
Au      39.59265532      43.76631470      30.09748484
Au      37.19449149      42.02394669      30.09748484
Au      39.59265532      41.24473602      31.53998267
Au      37.19449149      44.54552536      28.65498700
Au      34.79632766      45.32473602      30.09748484
Au      37.19449149      44.54552536      31.53998267
Au      44.38898298      39.68631470      31.53998267
Au      44.38898298      42.20789337      32.98248050
Au      41.99081915      40.46552536      32.98248050
Au      41.99081915      42.98710403      31.53998267
Au      39.59265532      43.76631470      32.98248050
Au      41.99081915      42.98710403      34.42497834
Au      32.39816383      28.45289597      21.44249783
Au      30.00000000      29.23210663      20.00000000
Au      30.00000000      31.75368530      21.44249783
Au      30.00000000      29.23210663      22.88499567
Au      34.79632766      27.67368530      22.88499567
Au      34.79632766      30.19526398      24.32749350
Au      32.39816383      28.45289597      24.32749350
Au      32.39816383      30.97447464      22.88499567
Au      32.39816383      33.49605331      24.32749350
Au      30.00000000      31.75368530      24.32749350
Au      32.39816383      30.97447464      25.76999133
Au      30.00000000      34.27526398      22.88499567
Au      30.00000000      36.79684265      24.32749350
Au      30.00000000      34.27526398      25.76999133
Au      37.19449149      29.41605331      25.76999133
Au      37.19449149      31.93763199      27.21248917
Au      34.79632766      30.19526398      27.21248917
Au      34.79632766      32.71684265      25.76999133
Au      34.79632766      35.23842133      27.21248917
Au      32.39816383      33.49605331      27.21248917
Au      34.79632766      32.71684265      28.65498700
Au      32.39816383      36.01763199      25.76999133
Au      32.39816383      38.53921066      27.21248917
Au      30.00000000      36.79684265      27.21248917
Au      32.39816383      36.01763199      28.65498700
Au      30.00000000      39.31842133      25.76999133
Au      30.00000000      41.84000000      27.21248917
Au      30.00000000      39.31842133      28.65498700
Au      39.59265532      31.15842133      28.65498700
Au      39.59265532      33.68000000      30.09748484
Au      37.19449149      31.93763199      30.09748484
Au      37.19449149      34.45921066      28.65498700
Au      37.19449149      36.98078934      30.09748484
Au      34.79632766      35.23842133      30.09748484
Au      37.19449149      34.45921066      31.53998267
Au      34.79632766      37.76000000      28.65498700
Au      34.79632766      40.28157867      30.09748484
Au      32.39816383      38.53921066      30.09748484
Au      34.79632766      37.76000000      31.53998267
Au      32.39816383      41.06078934      28.65498700
Au      32.39816383      43.58236801      30.09748484
Au      30.00000000      41.84000000      30.09748484
Au      32.39816383      41.06078934      31.53998267
Au      30.00000000      44.36157867      28.65498700
Au      30.00000000      46.88315735      30.09748484
Au      30.00000000      44.36157867      31.53998267
Au      39.59265532      36.20157867      31.53998267
Au      39.59265532      38.72315735      32.98248050
Au      37.19449149      36.98078934      32.98248050
Au      37.19449149      39.50236801      31.53998267
Au      37.19449149      42.02394669      32.98248050
Au      34.79632766      40.28157867      32.98248050
Au      37.19449149      39.50236801      34.42497834
Au      34.79632766      42.80315735      31.53998267
Au      34.79632766      45.32473602      32.98248050
Au      32.39816383      43.58236801      32.98248050
Au      34.79632766      42.80315735      34.42497834
Au      32.39816383      46.10394669      31.53998267
Au      30.00000000      46.88315735      32.98248050
Au      32.39816383      46.10394669      34.42497834
Au      39.59265532      41.24473602      34.42497834
Au      39.59265532      43.76631470      35.86747617
Au      37.19449149      42.02394669      35.86747617
Au      37.19449149      44.54552536      34.42497834
Au      34.79632766      45.32473602      35.86747617
Au      37.19449149      44.54552536      37.30997400
Au      30.00000000      29.23210663      25.76999133
Au      30.00000000      31.75368530      27.21248917
Au      32.39816383      30.97447464      28.65498700
Au      32.39816383      33.49605331      30.09748484
Au      30.00000000      31.75368530      30.09748484
Au      30.00000000      34.27526398      28.65498700
Au      30.00000000      36.79684265      30.09748484
Au      30.00000000      34.27526398      31.53998267
Au      34.79632766      32.71684265      31.53998267
Au      34.79632766      35.23842133      32.98248050
Au      32.39816383      33.49605331      32.98248050
Au      32.39816383      36.01763199      31.53998267
Au      32.39816383      38.53921066      32.98248050
Au      30.00000000      36.79684265      32.98248050
Au      32.39816383      36.01763199      34.42497834
Au      30.00000000      39.31842133      31.53998267
Au      30.00000000      41.84000000      32.98248050
Au      30.00000000      39.31842133      34.42497834
Au      34.79632766      37.76000000      34.42497834
Au      34.79632766      40.28157867      35.86747617
Au      32.39816383      38.53921066      35.86747617
Au      32.39816383      41.06078934      34.42497834
Au      32.39816383      43.58236801      35.86747617
Au      30.00000000      41.84000000      35.86747617
Au      32.39816383      41.06078934      37.30997400
Au      30.00000000      44.36157867      34.42497834
Au      30.00000000      46.88315735      35.86747617
Au      30.00000000      44.36157867      37.30997400
Au      34.79632766      42.80315735      37.30997400
Au      34.79632766      45.32473602      38.75247184
Au      32.39816383      43.58236801      38.75247184
Au      32.39816383      46.10394669      37.30997400
Au      30.00000000      46.88315735      38.75247184
Au      30.00000000      34.27526398      34.42497834
Au      30.00000000      36.79684265      35.86747617
Au      30.00000000      39.31842133      37.30997400
Au      30.00000000      41.84000000      38.75247184
Au      35.36245734      52.70552536       1.24752816
Au      36.84460410      54.74552536       2.69002600
Au      38.32675086      56.78552536       4.13252383
Au      39.80889762      58.82552536       5.57502166
Au      41.29104437      60.86552536       7.01751950
Au      36.27847442      49.88631470       1.24752816
Au      37.19449149      47.06710403       1.24752816
Au      38.67663825      49.10710403       2.69002600
Au      32.39816383      48.62552536       1.24752816
Au      34.79632766      47.84631470       2.69002600
Au      39.24276793      53.96631470       4.13252383
Au      40.15878500      51.14710403       4.13252383
Au      41.64093176      53.18710403       5.57502166
Au      37.76062117      51.92631470       2.69002600
Au      35.36245734      52.70552536       4.13252383
Au      36.27847442      49.88631470       4.13252383
Au      37.76062117      51.92631470       5.57502166
Au      33.88031059      50.66552536       2.69002600
Au      32.39816383      48.62552536       4.13252383
Au      33.88031059      50.66552536       5.57502166
Au      42.20706144      58.04631470       7.01751950
Au      43.12307852      55.22710403       7.01751950
Au      44.60522527      57.26710403       8.46001733
Au      40.72491469      56.00631470       5.57502166
Au      38.32675086      56.78552536       7.01751950
Au      39.24276793      53.96631470       7.01751950
Au      40.72491469      56.00631470       8.46001733
Au      36.84460410      54.74552536       5.57502166
Au      35.36245734      52.70552536       7.01751950
Au      36.84460410      54.74552536       8.46001733
Au      46.08737203      59.30710403       9.90251516
Au      43.68920820      60.08631470       8.46001733
Au      41.29104437      60.86552536       9.90251516
Au      42.20706144      58.04631470       9.90251516
Au      43.68920820      60.08631470      11.34501300
Au      39.80889762      58.82552536       8.46001733
Au      38.32675086      56.78552536       9.90251516
Au      39.80889762      58.82552536      11.34501300
Au      45.17135496      62.12631470      12.78751083
Au      42.77319113      62.90552536      11.34501300
Au      41.29104437      60.86552536      12.78751083
Au      42.77319113      62.90552536      14.23000867
Au      44.25533789      64.94552536      15.67250650
Au      41.07480207      48.32789337       4.13252383
Au      41.99081915      45.50868271       4.13252383
Au      43.47296590      47.54868271       5.57502166
Au      39.59265532      46.28789337       2.69002600
Au      37.19449149      47.06710403       4.13252383
Au      39.59265532      46.28789337       5.57502166
Au      44.03909559      52.40789337       7.01751950
Au      44.95511266      49.58868271       7.01751950
Au      46.43725942      51.62868271       8.46001733
Au      42.55694883      50.36789337       5.57502166
Au      40.15878500      51.14710403       7.01751950
Au      41.07480207      48.32789337       7.01751950
Au      42.55694883      50.36789337       8.46001733
Au      38.67663825      49.10710403       5.57502166
Au      36.27847442      49.88631470       7.01751950
Au      37.19449149      47.06710403       7.01751950
Au      38.67663825      49.10710403       8.46001733
Au      34.79632766      47.84631470       5.57502166
Au      32.39816383      48.62552536       7.01751950
Au      34.79632766      47.84631470       8.46001733
Au      47.00338910      56.48789337       9.90251516
Au      47.91940618      53.66868271       9.90251516
Au      49.40155293      55.70868271      11.34501300
Au      45.52124235      54.44789337       8.46001733
Au      43.12307852      55.22710403       9.90251516
Au      44.03909559      52.40789337       9.90251516
Au      45.52124235      54.44789337      11.34501300
Au      41.64093176      53.18710403       8.46001733
Au      39.24276793      53.96631470       9.90251516
Au      40.15878500      51.14710403       9.90251516
Au      41.64093176      53.18710403      11.34501300
Au      37.76062117      51.92631470       8.46001733
Au      35.36245734      52.70552536       9.90251516
Au      36.27847442      49.88631470       9.90251516
Au      37.76062117      51.92631470      11.34501300
Au      33.88031059      50.66552536       8.46001733
Au      32.39816383      48.62552536       9.90251516
Au      33.88031059      50.66552536      11.34501300
Au      50.88369969      57.74868271      12.78751083
Au      48.48553586      58.52789337      11.34501300
Au      46.08737203      59.30710403      12.78751083
Au      47.00338910      56.48789337      12.78751083
Au      48.48553586      58.52789337      14.23000867
Au      44.60522527      57.26710403      11.34501300
Au      42.20706144      58.04631470      12.78751083
Au      43.12307852      55.22710403      12.78751083
Au      44.60522527      57.26710403      14.23000867
Au      40.72491469      56.00631470      11.34501300
Au      38.32675086      56.78552536      12.78751083
Au      39.24276793      53.96631470      12.78751083
Au      40.72491469      56.00631470      14.23000867
Au      36.84460410      54.74552536      11.34501300
Au      35.36245734      52.70552536      12.78751083
Au      36.84460410      54.74552536      14.23000867
Au      49.96768262      60.56789337      15.67250650
Au      47.56951879      61.34710403      14.23000867
Au      45.17135496      62.12631470      15.67250650
Au      46.08737203      59.30710403      15.67250650
Au      47.56951879      61.34710403      17.11500433
Au      43.68920820      60.08631470      14.23000867
Au      41.29104437      60.86552536      15.67250650
Au      42.20706144      58.04631470      15.67250650
Au      43.68920820      60.08631470      17.11500433
Au      39.80889762      58.82552536      14.23000867
Au      38.32675086      56.78552536      15.67250650
Au      39.80889762      58.82552536      17.11500433
Au      49.05166555      63.38710403      18.55750217
Au      46.65350172      64.16631470      17.11500433
Au      44.25533789      64.94552536      18.55750217
Au      45.17135496      62.12631470      18.55750217
Au      46.65350172      64.16631470      20.00000000
Au      42.77319113      62.90552536      17.11500433
Au      41.29104437      60.86552536      18.55750217
Au      42.77319113      62.90552536      20.00000000
Au      44.25533789      64.94552536      21.44249783
Au      45.87112973      46.76947204       7.01751950
Au      44.38898298      44.72947204       5.57502166
Au      41.99081915      45.50868271       7.01751950
Au      44.38898298      44.72947204       8.46001733
Au      48.83542325      50.84947204       9.90251516
Au      47.35327649      48.80947204       8.46001733
Au      44.95511266      49.58868271       9.90251516
Au      45.87112973      46.76947204       9.90251516
Au      47.35327649      48.80947204      11.34501300
Au      43.47296590      47.54868271       8.46001733
Au      41.07480207      48.32789337       9.90251516
Au      41.99081915      45.50868271       9.90251516
Au      43.47296590      47.54868271      11.34501300
Au      39.59265532      46.28789337       8.46001733
Au      37.19449149      47.06710403       9.90251516
Au      39.59265532      46.28789337      11.34501300
Au      51.79971676      54.92947204      12.78751083
Au      50.31757000      52.88947204      11.34501300
Au      47.91940618      53.66868271      12.78751083
Au      48.83542325      50.84947204      12.78751083
Au      50.31757000      52.88947204      14.23000867
Au      46.43725942      51.62868271      11.34501300
Au      44.03909559      52.40789337      12.78751083
Au      44.95511266      49.58868271      12.78751083
Au      46.43725942      51.62868271      14.23000867
Au      42.55694883      50.36789337      11.34501300
Au      40.15878500      51.14710403      12.78751083
Au      41.07480207      48.32789337      12.78751083
Au      42.55694883      50.36789337      14.23000867
Au      38.67663825      49.10710403      11.34501300
Au      36.27847442      49.88631470      12.78751083
Au      37.19449149      47.06710403      12.78751083
Au      38.67663825      49.10710403      14.23000867
Au      34.79632766      47.84631470      11.34501300
Au      32.39816383      48.62552536      12.78751083
Au      34.79632766      47.84631470      14.23000867
Au      53.28186352      56.96947204      14.23000867
Au      50.88369969      57.74868271      15.67250650
Au      51.79971676      54.92947204      15.67250650
Au      53.28186352      56.96947204      17.11500433
Au      49.40155293      55.70868271      14.23000867
Au      47.00338910      56.48789337      15.67250650
Au      47.91940618      53.66868271      15.67250650
Au      49.40155293      55.70868271      17.11500433
Au      45.52124235      54.44789337      14.23000867
Au      43.12307852      55.22710403      15.67250650
Au      44.03909559      52.40789337      15.67250650
Au      45.52124235      54.44789337      17.11500433
Au      41.64093176      53.18710403      14.23000867
Au      39.24276793      53.96631470      15.67250650
Au      40.15878500      51.14710403      15.67250650
Au      41.64093176      53.18710403      17.11500433
Au      37.76062117      51.92631470      14.23000867
Au      35.36245734      52.70552536      15.67250650
Au      36.27847442      49.88631470      15.67250650
Au      37.76062117      51.92631470      17.11500433
Au      33.88031059      50.66552536      14.23000867
Au      32.39816383      48.62552536      15.67250650
Au      33.88031059      50.66552536      17.11500433
Au      52.36584645      59.78868271      17.11500433
Au      49.96768262      60.56789337      18.55750217
Au      50.88369969      57.74868271      18.55750217
Au      52.36584645      59.78868271      20.00000000
Au      48.48553586      58.52789337      17.11500433
Au      46.08737203      59.30710403      18.55750217
Au      47.00338910      56.48789337      18.55750217
Au      48.48553586      58.52789337      20.00000000
Au      44.60522527      57.26710403      17.11500433
Au      42.20706144      58.04631470      18.55750217
Au      43.12307852      55.22710403      18.55750217
Au      44.60522527      57.26710403      20.00000000
Au      40.72491469      56.00631470      17.11500433
Au      38.32675086      56.78552536      18.55750217
Au      39.24276793      53.96631470      18.55750217
Au      40.72491469      56.00631470      20.00000000
Au      36.84460410      54.74552536      17.11500433
Au      35.36245734      52.70552536      18.55750217
Au      36.84460410      54.74552536      20.00000000
Au      51.44982937      62.60789337      20.00000000
Au      49.05166555      63.38710403      21.44249783
Au      49.96768262      60.56789337      21.44249783
Au      47.56951879      61.34710403      20.00000000
Au      45.17135496      62.12631470      21.44249783
Au      46.08737203      59.30710403      21.44249783
Au      47.56951879      61.34710403      22.88499567
Au      43.68920820      60.08631470      20.00000000
Au      41.29104437      60.86552536      21.44249783
Au      42.20706144      58.04631470      21.44249783
Au      43.68920820      60.08631470      22.88499567
Au      39.80889762      58.82552536      20.00000000
Au      38.32675086      56.78552536      21.44249783
Au      39.80889762      58.82552536      22.88499567
Au      46.65350172      64.16631470      22.88499567
Au      44.25533789      64.94552536      24.32749350
Au      45.17135496      62.12631470      24.32749350
Au      42.77319113      62.90552536      22.88499567
Au      41.29104437      60.86552536      24.32749350
Au      42.77319113      62.90552536      25.76999133
Au      46.78714681      43.95026138       9.90251516
Au      49.75144032      48.03026138      12.78751083
Au      48.26929356      45.99026138      11.34501300
Au      45.87112973      46.76947204      12.78751083
Au      46.78714681      43.95026138      12.78751083
Au      48.26929356      45.99026138      14.23000867
Au      44.38898298      44.72947204      11.34501300
Au      41.99081915      45.50868271      12.78751083
Au      44.38898298      44.72947204      14.23000867
Au      52.71573383      52.11026138      15.67250650
Au      51.23358708      50.07026138      14.23000867
Au      48.83542325      50.84947204      15.67250650
Au      49.75144032      48.03026138      15.67250650
Au      51.23358708      50.07026138      17.11500433
Au      47.35327649      48.80947204      14.23000867
Au      44.95511266      49.58868271      15.67250650
Au      45.87112973      46.76947204      15.67250650
Au      47.35327649      48.80947204      17.11500433
Au      43.47296590      47.54868271      14.23000867
Au      41.07480207      48.32789337      15.67250650
Au      41.99081915      45.50868271      15.67250650
Au      43.47296590      47.54868271      17.11500433
Au      39.59265532      46.28789337      14.23000867
Au      37.19449149      47.06710403      15.67250650
Au      39.59265532      46.28789337      17.11500433
Au      54.19788059      54.15026138      17.11500433
Au      51.79971676      54.92947204      18.55750217
Au      52.71573383      52.11026138      18.55750217
Au      54.19788059      54.15026138      20.00000000
Au      50.31757000      52.88947204      17.11500433
Au      47.91940618      53.66868271      18.55750217
Au      48.83542325      50.84947204      18.55750217
Au      50.31757000      52.88947204      20.00000000
Au      46.43725942      51.62868271      17.11500433
Au      44.03909559      52.40789337      18.55750217
Au      44.95511266      49.58868271      18.55750217
Au      46.43725942      51.62868271      20.00000000
Au      42.55694883      50.36789337      17.11500433
Au      40.15878500      51.14710403      18.55750217
Au      41.07480207      48.32789337      18.55750217
Au      42.55694883      50.36789337      20.00000000
Au      38.67663825      49.10710403      17.11500433
Au      36.27847442      49.88631470      18.55750217
Au      37.19449149      47.06710403      18.55750217
Au      38.67663825      49.10710403      20.00000000
Au      34.79632766      47.84631470      17.11500433
Au      32.39816383      48.62552536      18.55750217
Au      34.79632766      47.84631470      20.00000000
Au      53.28186352      56.96947204      20.00000000
Au      50.88369969      57.74868271      21.44249783
Au      51.79971676      54.92947204      21.44249783
Au      53.28186352      56.96947204      22.88499567
Au      49.40155293      55.70868271      20.00000000
Au      47.00338910      56.48789337      21.44249783
Au      47.91940618      53.66868271      21.44249783
Au      49.40155293      55.70868271      22.88499567
Au      45.52124235      54.44789337      20.00000000
Au      43.12307852      55.22710403      21.44249783
Au      44.03909559      52.40789337      21.44249783
Au      45.52124235      54.44789337      22.88499567
Au      41.64093176      53.18710403      20.00000000
Au      39.24276793      53.96631470      21.44249783
Au      40.15878500      51.14710403      21.44249783
Au      41.64093176      53.18710403      22.88499567
Au      37.76062117      51.92631470      20.00000000
Au      35.36245734      52.70552536      21.44249783
Au      36.27847442      49.88631470      21.44249783
Au      37.76062117      51.92631470      22.88499567
Au      33.88031059      50.66552536      20.00000000
Au      32.39816383      48.62552536      21.44249783
Au      33.88031059      50.66552536      22.88499567
Au      52.36584645      59.78868271      22.88499567
Au      49.96768262      60.56789337      24.32749350
Au      50.88369969      57.74868271      24.32749350
Au      48.48553586      58.52789337      22.88499567
Au      46.08737203      59.30710403      24.32749350
Au      47.00338910      56.48789337      24.32749350
Au      48.48553586      58.52789337      25.76999133
Au      44.60522527      57.26710403      22.88499567
Au      42.20706144      58.04631470      24.32749350
Au      43.12307852      55.22710403      24.32749350
Au      44.60522527      57.26710403      25.76999133
Au      40.72491469      56.00631470      22.88499567
Au      38.32675086      56.78552536      24.32749350
Au      39.24276793      53.96631470      24.32749350
Au      40.72491469      56.00631470      25.76999133
Au      36.84460410      54.74552536      22.88499567
Au      35.36245734      52.70552536      24.32749350
Au      36.84460410      54.74552536      25.76999133
Au      47.56951879      61.34710403      25.76999133
Au      45.17135496      62.12631470      27.21248917
Au      46.08737203      59.30710403      27.21248917
Au      43.68920820      60.08631470      25.76999133
Au      41.29104437      60.86552536      27.21248917
Au      42.20706144      58.04631470      27.21248917
Au      43.68920820      60.08631470      28.65498700
Au      39.80889762      58.82552536      25.76999133
Au      38.32675086      56.78552536      27.21248917
Au      39.80889762      58.82552536      28.65498700
Au      42.77319113      62.90552536      28.65498700
Au      41.29104437      60.86552536      30.09748484
Au      50.66745739      45.21105072      15.67250650
Au      49.18531063      43.17105072      14.23000867
Au      46.78714681      43.95026138      15.67250650
Au      49.18531063      43.17105072      17.11500433
Au      53.63175091      49.29105072      18.55750217
Au      52.14960415      47.25105072      17.11500433
Au      49.75144032      48.03026138      18.55750217
Au      50.66745739      45.21105072      18.55750217
Au      52.14960415      47.25105072      20.00000000
Au      48.26929356      45.99026138      17.11500433
Au      45.87112973      46.76947204      18.55750217
Au      46.78714681      43.95026138      18.55750217
Au      48.26929356      45.99026138      20.00000000
Au      44.38898298      44.72947204      17.11500433
Au      41.99081915      45.50868271      18.55750217
Au      44.38898298      44.72947204      20.00000000
Au      55.11389766      51.33105072      20.00000000
Au      52.71573383      52.11026138      21.44249783
Au      53.63175091      49.29105072      21.44249783
Au      51.23358708      50.07026138      20.00000000
Au      48.83542325      50.84947204      21.44249783
Au      49.75144032      48.03026138      21.44249783
Au      51.23358708      50.07026138      22.88499567
Au      47.35327649      48.80947204      20.00000000
Au      44.95511266      49.58868271      21.44249783
Au      45.87112973      46.76947204      21.44249783
Au      47.35327649      48.80947204      22.88499567
Au      43.47296590      47.54868271      20.00000000
Au      41.07480207      48.32789337      21.44249783
Au      41.99081915      45.50868271      21.44249783
Au      43.47296590      47.54868271      22.88499567
Au      39.59265532      46.28789337      20.00000000
Au      37.19449149      47.06710403      21.44249783
Au      39.59265532      46.28789337      22.88499567
Au      54.19788059      54.15026138      22.88499567
Au      51.79971676      54.92947204      24.32749350
Au      52.71573383      52.11026138      24.32749350
Au      50.31757000      52.88947204      22.88499567
Au      47.91940618      53.66868271      24.32749350
Au      48.83542325      50.84947204      24.32749350
Au      50.31757000      52.88947204      25.76999133
Au      46.43725942      51.62868271      22.88499567
Au      44.03909559      52.40789337      24.32749350
Au      44.95511266      49.58868271      24.32749350
Au      46.43725942      51.62868271      25.76999133
Au      42.55694883      50.36789337      22.88499567
Au      40.15878500      51.14710403      24.32749350
Au      41.07480207      48.32789337      24.32749350
Au      42.55694883      50.36789337      25.76999133
Au      38.67663825      49.10710403      22.88499567
Au      36.27847442      49.88631470      24.32749350
Au      37.19449149      47.06710403      24.32749350
Au      38.67663825      49.10710403      25.76999133
Au      34.79632766      47.84631470      22.88499567
Au      32.39816383      48.62552536      24.32749350
Au      34.79632766      47.84631470      25.76999133
Au      53.28186352      56.96947204      25.76999133
Au      50.88369969      57.74868271      27.21248917
Au      51.79971676      54.92947204      27.21248917
Au      49.40155293      55.70868271      25.76999133
Au      47.00338910      56.48789337      27.21248917
Au      47.91940618      53.66868271      27.21248917
Au      49.40155293      55.70868271      28.65498700
Au      45.52124235      54.44789337      25.76999133
Au      43.12307852      55.22710403      27.21248917
Au      44.03909559      52.40789337      27.21248917
Au      45.52124235      54.44789337      28.65498700
Au      41.64093176      53.18710403      25.76999133
Au      39.24276793      53.96631470      27.21248917
Au      40.15878500      51.14710403      27.21248917
Au      41.64093176      53.18710403      28.65498700
Au      37.76062117      51.92631470      25.76999133
Au      35.36245734      52.70552536      27.21248917
Au      36.27847442      49.88631470      27.21248917
Au      37.76062117      51.92631470      28.65498700
Au      33.88031059      50.66552536      25.76999133
Au      32.39816383      48.62552536      27.21248917
Au      33.88031059      50.66552536      28.65498700
Au      48.48553586      58.52789337      28.65498700
Au      46.08737203      59.30710403      30.09748484
Au      47.00338910      56.48789337      30.09748484
Au      44.60522527      57.26710403      28.65498700
Au      42.20706144      58.04631470      30.09748484
Au      43.12307852      55.22710403      30.09748484
Au      44.60522527      57.26710403      31.53998267
Au      40.72491469      56.00631470      28.65498700
Au      38.32675086      56.78552536      30.09748484
Au      39.24276793      53.96631470      30.09748484
Au      40.72491469      56.00631470      31.53998267
Au      36.84460410      54.74552536      28.65498700
Au      35.36245734      52.70552536      30.09748484
Au      36.84460410      54.74552536      31.53998267
Au      43.68920820      60.08631470      31.53998267
Au      41.29104437      60.86552536      32.98248050
Au      42.20706144      58.04631470      32.98248050
Au      39.80889762      58.82552536      31.53998267
Au      38.32675086      56.78552536      32.98248050
Au      39.80889762      58.82552536      34.42497834
Au      50.66745739      45.21105072      21.44249783
Au      49.18531063      43.17105072      20.00000000
Au      46.78714681      43.95026138      21.44249783
Au      49.18531063      43.17105072      22.88499567
Au      52.14960415      47.25105072      22.88499567
Au      49.75144032      48.03026138      24.32749350
Au      50.66745739      45.21105072      24.32749350
Au      48.26929356      45.99026138      22.88499567
Au      45.87112973      46.76947204      24.32749350
Au      46.78714681      43.95026138      24.32749350
Au      48.26929356      45.99026138      25.76999133
Au      44.38898298      44.72947204      22.88499567
Au      41.99081915      45.50868271      24.32749350
Au      44.38898298      44.72947204      25.76999133
Au      51.23358708      50.07026138      25.76999133
Au      48.83542325      50.84947204      27.21248917
Au      49.75144032      48.03026138      27.21248917
Au      47.35327649      48.80947204      25.76999133
Au      44.95511266      49.58868271      27.21248917
Au      45.87112973      46.76947204      27.21248917
Au      47.35327649      48.80947204      28.65498700
Au      43.47296590      47.54868271      25.76999133
Au      41.07480207      48.32789337      27.21248917
Au      41.99081915      45.50868271      27.21248917
Au      43.47296590      47.54868271      28.65498700
Au      39.59265532      46.28789337      25.76999133
Au      37.19449149      47.06710403      27.21248917
Au      39.59265532      46.28789337      28.65498700
Au      50.31757000      52.88947204      28.65498700
Au      47.91940618      53.66868271      30.09748484
Au      48.83542325      50.84947204      30.09748484
Au      46.43725942      51.62868271      28.65498700
Au      44.03909559      52.40789337      30.09748484
Au      44.95511266      49.58868271      30.09748484
Au      46.43725942      51.62868271      31.53998267
Au      42.55694883      50.36789337      28.65498700
Au      40.15878500      51.14710403      30.09748484
Au      41.07480207      48.32789337      30.09748484
Au      42.55694883      50.36789337      31.53998267
Au      38.67663825      49.10710403      28.65498700
Au      36.27847442      49.88631470      30.09748484
Au      37.19449149      47.06710403      30.09748484
Au      38.67663825      49.10710403      31.53998267
Au      34.79632766      47.84631470      28.65498700
Au      32.39816383      48.62552536      30.09748484
Au      34.79632766      47.84631470      31.53998267
Au      45.52124235      54.44789337      31.53998267
Au      43.12307852      55.22710403      32.98248050
Au      44.03909559      52.40789337      32.98248050
Au      41.64093176      53.18710403      31.53998267
Au      39.24276793      53.96631470      32.98248050
Au      40.15878500      51.14710403      32.98248050
Au      41.64093176      53.18710403      34.42497834
Au      37.76062117      51.92631470      31.53998267
Au      35.36245734      52.70552536      32.98248050
Au      36.27847442      49.88631470      32.98248050
Au      37.76062117      51.92631470      34.42497834
Au      33.88031059      50.66552536      31.53998267
Au      32.39816383      48.62552536      32.98248050
Au      33.88031059      50.66552536      34.42497834
Au      40.72491469      56.00631470      34.42497834
Au      38.32675086      56.78552536      35.86747617
Au      39.24276793      53.96631470      35.86747617
Au      36.84460410      54.74552536      34.42497834
Au      35.36245734      52.70552536      35.86747617
Au      36.84460410      54.74552536      37.30997400
Au      49.18531063      43.17105072      25.76999133
Au      46.78714681      43.95026138      27.21248917
Au      48.26929356      45.99026138      28.65498700
Au      45.87112973      46.76947204      30.09748484
Au      46.78714681      43.95026138      30.09748484
Au      44.38898298      44.72947204      28.65498700
Au      41.99081915      45.50868271      30.09748484
Au      44.38898298      44.72947204      31.53998267
Au      47.35327649      48.80947204      31.53998267
Au      44.95511266      49.58868271      32.98248050
Au      45.87112973      46.76947204      32.98248050
Au      43.47296590      47.54868271      31.53998267
Au      41.07480207      48.32789337      32.98248050
Au      41.99081915      45.50868271      32.98248050
Au      43.47296590      47.54868271      34.42497834
Au      39.59265532      46.28789337      31.53998267
Au      37.19449149      47.06710403      32.98248050
Au      39.59265532      46.28789337      34.42497834
Au      42.55694883      50.36789337      34.42497834
Au      40.15878500      51.14710403      35.86747617
Au      41.07480207      48.32789337      35.86747617
Au      38.67663825      49.10710403      34.42497834
Au      36.27847442      49.88631470      35.86747617
Au      37.19449149      47.06710403      35.86747617
Au      38.67663825      49.10710403      37.30997400
Au      34.79632766      47.84631470      34.42497834
Au      32.39816383      48.62552536      35.86747617
Au      34.79632766      47.84631470      37.30997400
Au      37.76062117      51.92631470      37.30997400
Au      35.36245734      52.70552536      38.75247184
Au      36.27847442      49.88631470      38.75247184
Au      33.88031059      50.66552536      37.30997400
Au      32.39816383      48.62552536      38.75247184
Au      44.38898298      44.72947204      34.42497834
Au      41.99081915      45.50868271      35.86747617
Au      39.59265532      46.28789337      37.30997400
Au      37.19449149      47.06710403      38.75247184
Au      30.00000000      49.40473602       2.69002600
Au      30.00000000      49.40473602       5.57502166
Au      30.00000000      49.40473602       8.46001733
Au      30.00000000      49.40473602      11.34501300
Au      30.00000000      49.40473602      14.23000867
Au      30.00000000      49.40473602      17.11500433
Au      30.00000000      49.40473602      20.00000000
Au      30.00000000      49.40473602      22.88499567
Au      30.00000000      49.40473602      25.76999133
Au      30.00000000      49.40473602      28.65498700
Au      30.00000000      49.40473602      31.53998267
Au      30.00000000      49.40473602      34.42497834
Au      30.00000000      49.40473602      37.30997400
Au      54.60000000      64.80000000      17.96000000
Au      56.64000000      62.76000000      17.96000000
Au      56.64000000      64.80000000      15.92000000
Au      54.60000000      64.80000000      22.04000000
Au      56.64000000      62.76000000      22.04000000
Au      56.64000000      64.80000000      20.00000000
Au      56.64000000      64.80000000      24.08000000
Au      54.60000000      68.88000000      13.88000000
Au      56.64000000      66.84000000      13.88000000
Au      56.64000000      68.88000000      11.84000000
Au      54.60000000      66.84000000      15.92000000
Au      54.60000000      68.88000000      17.96000000
Au      56.64000000      66.84000000      17.96000000
Au      56.64000000      68.88000000      15.92000000
Au      54.60000000      66.84000000      20.00000000
Au      54.60000000      68.88000000      22.04000000
Au      56.64000000      66.84000000      22.04000000
Au      56.64000000      68.88000000      20.00000000
Au      54.60000000      66.84000000      24.08000000
Au      54.60000000      68.88000000      26.12000000
Au      56.64000000      66.84000000      26.12000000
Au      56.64000000      68.88000000      24.08000000
Au      56.64000000      68.88000000      28.16000000
Au      54.60000000      72.96000000       9.80000000
Au      56.64000000      70.92000000       9.80000000
Au      56.64000000      72.96000000       7.76000000
Au      54.60000000      70.92000000      11.84000000
Au      54.60000000      72.96000000      13.88000000
Au      56.64000000      70.92000000      13.88000000
Au      56.64000000      72.96000000      11.84000000
Au      54.60000000      70.92000000      15.92000000
Au      54.60000000      72.96000000      17.96000000
Au      56.64000000      70.92000000      17.96000000
Au      56.64000000      72.96000000      15.92000000
Au      54.60000000      70.92000000      20.00000000
Au      54.60000000      72.96000000      22.04000000
Au      56.64000000      70.92000000      22.04000000
Au      56.64000000      72.96000000      20.00000000
Au      54.60000000      70.92000000      24.08000000
Au      54.60000000      72.96000000      26.12000000
Au      56.64000000      70.92000000      26.12000000
Au      56.64000000      72.96000000      24.08000000
Au      54.60000000      70.92000000      28.16000000
Au      54.60000000      72.96000000      30.20000000
Au      56.64000000      70.92000000      30.20000000
Au      56.64000000      72.96000000      28.16000000
Au      56.64000000      72.96000000      32.24000000
Au      54.60000000      77.04000000       9.80000000
Au      56.64000000      75.00000000       9.80000000
Au      56.64000000      77.04000000       7.76000000
Au      54.60000000      75.00000000      11.84000000
Au      54.60000000      77.04000000      13.88000000
Au      56.64000000      75.00000000      13.88000000
Au      56.64000000      77.04000000      11.84000000
Au      54.60000000      75.00000000      15.92000000
Au      54.60000000      77.04000000      17.96000000
Au      56.64000000      75.00000000      17.96000000
Au      56.64000000      77.04000000      15.92000000
Au      54.60000000      75.00000000      20.00000000
Au      54.60000000      77.04000000      22.04000000
Au      56.64000000      75.00000000      22.04000000
Au      56.64000000      77.04000000      20.00000000
Au      54.60000000      75.00000000      24.08000000
Au      54.60000000      77.04000000      26.12000000
Au      56.64000000      75.00000000      26.12000000
Au      56.64000000      77.04000000      24.08000000
Au      54.60000000      75.00000000      28.16000000
Au      54.60000000      77.04000000      30.20000000
Au      56.64000000      75.00000000      30.20000000
Au      56.64000000      77.04000000      28.16000000
Au      56.64000000      77.04000000      32.24000000
Au      56.64000000      79.08000000       9.80000000
Au      54.60000000      79.08000000      11.84000000
Au      54.60000000      81.12000000      13.88000000
Au      56.64000000      79.08000000      13.88000000
Au      56.64000000      81.12000000      11.84000000
Au      54.60000000      79.08000000      15.92000000
Au      54.60000000      81.12000000      17.96000000
Au      56.64000000      79.08000000      17.96000000
Au      56.64000000      81.12000000      15.92000000
Au      54.60000000      79.08000000      20.00000000
Au      54.60000000      81.12000000      22.04000000
Au      56.64000000      79.08000000      22.04000000
Au      56.64000000      81.12000000      20.00000000
Au      54.60000000      79.08000000      24.08000000
Au      54.60000000      81.12000000      26.12000000
Au      56.64000000      79.08000000      26.12000000
Au      56.64000000      81.12000000      24.08000000
Au      54.60000000      79.08000000      28.16000000
Au      56.64000000      79.08000000      30.20000000
Au      56.64000000      81.12000000      28.16000000
Au      56.64000000      83.16000000      13.88000000
Au      54.60000000      83.16000000      15.92000000
Au      54.60000000      85.20000000      17.96000000
Au      56.64000000      83.16000000      17.96000000
Au      56.64000000      85.20000000      15.92000000
Au      54.60000000      83.16000000      20.00000000
Au      54.60000000      85.20000000      22.04000000
Au      56.64000000      83.16000000      22.04000000
Au      56.64000000      85.20000000      20.00000000
Au      54.60000000      83.16000000      24.08000000
Au      56.64000000      83.16000000      26.12000000
Au      56.64000000      85.20000000      24.08000000
Au      56.64000000      87.24000000      17.96000000
Au      56.64000000      87.24000000      22.04000000
Au      58.68000000      60.72000000      17.96000000
Au      60.72000000      58.68000000      17.96000000
Au      60.72000000      60.72000000      15.92000000
Au      58.68000000      60.72000000      22.04000000
Au      60.72000000      58.68000000      22.04000000
Au      60.72000000      60.72000000      20.00000000
Au      60.72000000      60.72000000      24.08000000
Au      58.68000000      64.80000000      13.88000000
Au      60.72000000      62.76000000      13.88000000
Au      60.72000000      64.80000000      11.84000000
Au      58.68000000      62.76000000      15.92000000
Au      58.68000000      64.80000000      17.96000000
Au      60.72000000      62.76000000      17.96000000
Au      60.72000000      64.80000000      15.92000000
Au      58.68000000      62.76000000      20.00000000
Au      58.68000000      64.80000000      22.04000000
Au      60.72000000      62.76000000      22.04000000
Au      60.72000000      64.80000000      20.00000000
Au      58.68000000      62.76000000      24.08000000
Au      58.68000000      64.80000000      26.12000000
Au      60.72000000      62.76000000      26.12000000
Au      60.72000000      64.80000000      24.08000000
Au      60.72000000      64.80000000      28.16000000
Au      58.68000000      68.88000000       9.80000000
Au      60.72000000      66.84000000       9.80000000
Au      60.72000000      68.88000000       7.76000000
Au      58.68000000      66.84000000      11.84000000
Au      58.68000000      68.88000000      13.88000000
Au      60.72000000      66.84000000      13.88000000
Au      60.72000000      68.88000000      11.84000000
Au      58.68000000      66.84000000      15.92000000
Au      58.68000000      68.88000000      17.96000000
Au      60.72000000      66.84000000      17.96000000
Au      60.72000000      68.88000000      15.92000000
Au      58.68000000      66.84000000      20.00000000
Au      58.68000000      68.88000000      22.04000000
Au      60.72000000      66.84000000      22.04000000
Au      60.72000000      68.88000000      20.00000000
Au      58.68000000      66.84000000      24.08000000
Au      58.68000000      68.88000000      26.12000000
Au      60.72000000      66.84000000      26.12000000
Au      60.72000000      68.88000000      24.08000000
Au      58.68000000      66.84000000      28.16000000
Au      58.68000000      68.88000000      30.20000000
Au      60.72000000      66.84000000      30.20000000
Au      60.72000000      68.88000000      28.16000000
Au      60.72000000      68.88000000      32.24000000
Au      58.68000000      72.96000000       5.72000000
Au      60.72000000      70.92000000       5.72000000
Au      60.72000000      72.96000000       3.68000000
Au      58.68000000      70.92000000       7.76000000
Au      58.68000000      72.96000000       9.80000000
Au      60.72000000      70.92000000       9.80000000
Au      60.72000000      72.96000000       7.76000000
Au      58.68000000      70.92000000      11.84000000
Au      58.68000000      72.96000000      13.88000000
Au      60.72000000      70.92000000      13.88000000
Au      60.72000000      72.96000000      11.84000000
Au      58.68000000      70.92000000      15.92000000
Au      58.68000000      72.96000000      17.96000000
Au      60.72000000      70.92000000      17.96000000
Au      60.72000000      72.96000000      15.92000000
Au      58.68000000      70.92000000      20.00000000
Au      58.68000000      72.96000000      22.04000000
Au      60.72000000      70.92000000      22.04000000
Au      60.72000000      72.96000000      20.00000000
Au      58.68000000      70.92000000      24.08000000
Au      58.68000000      72.96000000      26.12000000
Au      60.72000000      70.92000000      26.12000000
Au      60.72000000      72.96000000      24.08000000
Au      58.68000000      70.92000000      28.16000000
Au      58.68000000      72.96000000      30.20000000
Au      60.72000000      70.92000000      30.20000000
Au      60.72000000      72.96000000      28.16000000
Au      58.68000000      70.92000000      32.24000000
Au      58.68000000      72.96000000      34.28000000
Au      60.72000000      70.92000000      34.28000000
Au      60.72000000      72.96000000      32.24000000
Au      60.72000000      72.96000000      36.32000000
Au      58.68000000      77.04000000       5.72000000
Au      60.72000000      75.00000000       5.72000000
Au      60.72000000      77.04000000       3.68000000
Au      58.68000000      75.00000000       7.76000000
Au      58.68000000      77.04000000       9.80000000
Au      60.72000000      75.00000000       9.80000000
Au      60.72000000      77.04000000       7.76000000
Au      58.68000000      75.00000000      11.84000000
Au      58.68000000      77.04000000      13.88000000
Au      60.72000000      75.00000000      13.88000000
Au      60.72000000      77.04000000      11.84000000
Au      58.68000000      75.00000000      15.92000000
Au      58.68000000      77.04000000      17.96000000
Au      60.72000000      75.00000000      17.96000000
Au      60.72000000      77.04000000      15.92000000
Au      58.68000000      75.00000000      20.00000000
Au      58.68000000      77.04000000      22.04000000
Au      60.72000000      75.00000000      22.04000000
Au      60.72000000      77.04000000      20.00000000
Au      58.68000000      75.00000000      24.08000000
Au      58.68000000      77.04000000      26.12000000
Au      60.72000000      75.00000000      26.12000000
Au      60.72000000      77.04000000      24.08000000
Au      58.68000000      75.00000000      28.16000000
Au      58.68000000      77.04000000      30.20000000
Au      60.72000000      75.00000000      30.20000000
Au      60.72000000      77.04000000      28.16000000
Au      58.68000000      75.00000000      32.24000000
Au      58.68000000      77.04000000      34.28000000
Au      60.72000000      75.00000000      34.28000000
Au      60.72000000      77.04000000      32.24000000
Au      60.72000000      77.04000000      36.32000000
Au      60.72000000      79.08000000       5.72000000
Au      58.68000000      79.08000000       7.76000000
Au      58.68000000      81.12000000       9.80000000
Au      60.72000000      79.08000000       9.80000000
Au      60.72000000      81.12000000       7.76000000
Au      58.68000000      79.08000000      11.84000000
Au      58.68000000      81.12000000      13.88000000
Au      60.72000000      79.08000000      13.88000000
Au      60.72000000      81.12000000      11.84000000
Au      58.68000000      79.08000000      15.92000000
Au      58.68000000      81.12000000      17.96000000
Au      60.72000000      79.08000000      17.96000000
Au      60.72000000      81.12000000      15.92000000
Au      58.68000000      79.08000000      20.00000000
Au      58.68000000      81.12000000      22.04000000
Au      60.72000000      79.08000000      22.04000000
Au      60.72000000      81.12000000      20.00000000
Au      58.68000000      79.08000000      24.08000000
Au      58.68000000      81.12000000      26.12000000
Au      60.72000000      79.08000000      26.12000000
Au      60.72000000      81.12000000      24.08000000
Au      58.68000000      79.08000000      28.16000000
Au      58.68000000      81.12000000      30.20000000
Au      60.72000000      79.08000000      30.20000000
Au      60.72000000      81.12000000      28.16000000
Au      58.68000000      79.08000000      32.24000000
Au      60.72000000      79.08000000      34.28000000
Au      60.72000000      81.12000000      32.24000000
Au      60.72000000      83.16000000       9.80000000
Au      58.68000000      83.16000000      11.84000000
Au      58.68000000      85.20000000      13.88000000
Au      60.72000000      83.16000000      13.88000000
Au      60.72000000      85.20000000      11.84000000
Au      58.68000000      83.16000000      15.92000000
Au      58.68000000      85.20000000      17.96000000
Au      60.72000000      83.16000000      17.96000000
Au      60.72000000      85.20000000      15.92000000
Au      58.68000000      83.16000000      20.00000000
Au      58.68000000      85.20000000      22.04000000
Au      60.72000000      83.16000000      22.04000000
Au      60.72000000      85.20000000      20.00000000
Au      58.68000000      83.16000000      24.08000000
Au      58.68000000      85.20000000      26.12000000
Au      60.72000000      83.16000000      26.12000000
Au      60.72000000      85.20000000      24.08000000
Au      58.68000000      83.16000000      28.16000000
Au      60.72000000      83.16000000      30.20000000
Au      60.72000000      85.20000000      28.16000000
Au      60.72000000      87.24000000      13.88000000
Au      58.68000000      87.24000000      15.92000000
Au      58.68000000      89.28000000      17.96000000
Au      60.72000000      87.24000000      17.96000000
Au      60.72000000      89.28000000      15.92000000
Au      58.68000000      87.24000000      20.00000000
Au      58.68000000      89.28000000      22.04000000
Au      60.72000000      87.24000000      22.04000000
Au      60.72000000      89.28000000      20.00000000
Au      58.68000000      87.24000000      24.08000000
Au      60.72000000      87.24000000      26.12000000
Au      60.72000000      89.28000000      24.08000000
Au      60.72000000      91.32000000      17.96000000
Au      60.72000000      91.32000000      22.04000000
Au      62.76000000      56.64000000      17.96000000
Au      64.80000000      54.60000000      17.96000000
Au      64.80000000      56.64000000      15.92000000
Au      62.76000000      56.64000000      22.04000000
Au      64.80000000      54.60000000      22.04000000
Au      64.80000000      56.64000000      20.00000000
Au      64.80000000      56.64000000      24.08000000
Au      62.76000000      60.72000000      13.88000000
Au      64.80000000      58.68000000      13.88000000
Au      64.80000000      60.72000000      11.84000000
Au      62.76000000      58.68000000      15.92000000
Au      62.76000000      60.72000000      17.96000000
Au      64.80000000      58.68000000      17.96000000
Au      64.80000000      60.72000000      15.92000000
Au      62.76000000      58.68000000      20.00000000
Au      62.76000000      60.72000000      22.04000000
Au      64.80000000      58.68000000      22.04000000
Au      64.80000000      60.72000000      20.00000000
Au      62.76000000      58.68000000      24.08000000
Au      62.76000000      60.72000000      26.12000000
Au      64.80000000      58.68000000      26.12000000
Au      64.80000000      60.72000000      24.08000000
Au      64.80000000      60.72000000      28.16000000
Au      62.76000000      64.80000000       9.80000000
Au      64.80000000      62.76000000       9.80000000
Au      64.80000000      64.80000000       7.76000000
Au      62.76000000      62.76000000      11.84000000
Au      62.76000000      64.80000000      13.88000000
Au      64.80000000      62.76000000      13.88000000
Au      64.80000000      64.80000000      11.84000000
Au      62.76000000      62.76000000      15.92000000
Au      62.76000000      64.80000000      17.96000000
Au      64.80000000      62.76000000      17.96000000
Au      64.80000000      64.80000000      15.92000000
Au      62.76000000      62.76000000      20.00000000
Au      62.76000000      64.80000000      22.04000000
Au      64.80000000      62.76000000      22.04000000
Au      64.80000000      64.80000000      20.00000000
Au      62.76000000      62.76000000      24.08000000
Au      62.76000000      64.80000000      26.12000000
Au      64.80000000      62.76000000      26.12000000
Au      64.80000000      64.80000000      24.08000000
Au      62.76000000      62.76000000      28.16000000
Au      62.76000000      64.80000000      30.20000000
Au      64.80000000      62.76000000      30.20000000
Au      64.80000000      64.80000000      28.16000000
Au      64.80000000      64.80000000      32.24000000
Au      62.76000000      68.88000000       5.72000000
Au      64.80000000      66.84000000       5.72000000
Au      64.80000000      68.88000000       3.68000000
Au      62.76000000      66.84000000       7.76000000
Au      62.76000000      68.88000000       9.80000000
Au      64.80000000      66.84000000       9.80000000
Au      64.80000000      68.88000000       7.76000000
Au      62.76000000      66.84000000      11.84000000
Au      62.76000000      68.88000000      13.88000000
Au      64.80000000      66.84000000      13.88000000
Au      64.80000000      68.88000000      11.84000000
Au      62.76000000      66.84000000      15.92000000
Au      62.76000000      68.88000000      17.96000000
Au      64.80000000      66.84000000      17.96000000
Au      64.80000000      68.88000000      15.92000000
Au      62.76000000      66.84000000      20.00000000
Au      62.76000000      68.88000000      22.04000000
Au      64.80000000      66.84000000      22.04000000
Au      64.80000000      68.88000000      20.00000000
Au      62.76000000      66.84000000      24.08000000
Au      62.76000000      68.88000000      26.12000000
Au      64.80000000      66.84000000      26.12000000
Au      64.80000000      68.88000000      24.08000000
Au      62.76000000      66.84000000      28.16000000
Au      62.76000000      68.88000000      30.20000000
Au      64.80000000      66.84000000      30.20000000
Au      64.80000000      68.88000000      28.16000000
Au      62.76000000      66.84000000      32.24000000
Au      62.76000000      68.88000000      34.28000000
Au      64.80000000      66.84000000      34.28000000
Au      64.80000000      68.88000000      32.24000000
Au      64.80000000      68.88000000      36.32000000
Au      62.76000000      72.96000000       1.64000000
Au      64.80000000      70.92000000       1.64000000
Au      64.80000000      72.96000000      -0.40000000
Au      62.76000000      70.92000000       3.68000000
Au      62.76000000      72.96000000       5.72000000
Au      64.80000000      70.92000000       5.72000000
Au      64.80000000      72.96000000       3.68000000
Au      62.76000000      70.92000000       7.76000000
Au      62.76000000      72.96000000       9.80000000
Au      64.80000000      70.92000000       9.80000000
Au      64.80000000      72.96000000       7.76000000
Au      62.76000000      70.92000000      11.84000000
Au      62.76000000      72.96000000      13.88000000
Au      64.80000000      70.92000000      13.88000000
Au      64.80000000      72.96000000      11.84000000
Au      62.76000000      70.92000000      15.92000000
Au      62.76000000      72.96000000      17.96000000
Au      64.80000000      70.92000000      17.96000000
Au      64.80000000      72.96000000      15.92000000
Au      62.76000000      70.92000000      20.00000000
Au      62.76000000      72.96000000      22.04000000
Au      64.80000000      70.92000000      22.04000000
Au      64.80000000      72.96000000      20.00000000
Au      62.76000000      70.92000000      24.08000000
Au      62.76000000      72.96000000      26.12000000
Au      64.80000000      70.92000000      26.12000000
Au      64.80000000      72.96000000      24.08000000
Au      62.76000000      70.92000000      28.16000000
Au      62.76000000      72.96000000      30.20000000
Au      64.80000000      70.92000000      30.20000000
Au      64.80000000      72.96000000      28.16000000
Au      62.76000000      70.92000000      32.24000000
Au      62.76000000      72.96000000      34.28000000
Au      64.80000000      70.92000000      34.28000000
Au      64.80000000      72.96000000      32.24000000
Au      62.76000000      70.92000000      36.32000000
Au      62.76000000      72.96000000      38.36000000
Au      64.80000000      70.92000000      38.36000000
Au      64.80000000      72.96000000      36.32000000
Au      64.80000000      72.96000000      40.40000000
Au      62.76000000      77.04000000       1.64000000
Au      64.80000000      75.00000000       1.64000000
Au      64.80000000      77.04000000      -0.40000000
Au      62.76000000      75.00000000       3.68000000
Au      62.76000000      77.04000000       5.72000000
Au      64.80000000      75.00000000       5.72000000
Au      64.80000000      77.04000000       3.68000000
Au      62.76000000      75.00000000       7.76000000
Au      62.76000000      77.04000000       9.80000000
Au      64.80000000      75.00000000       9.80000000
Au      64.80000000      77.04000000       7.76000000
Au      62.76000000      75.00000000      11.84000000
Au      62.76000000      77.04000000      13.88000000
Au      64.80000000      75.00000000      13.88000000
Au      64.80000000      77.04000000      11.84000000
Au      62.76000000      75.00000000      15.92000000
Au      62.76000000      77.04000000      17.96000000
Au      64.80000000      75.00000000      17.96000000
Au      64.80000000      77.04000000      15.92000000
Au      62.76000000      75.00000000      20.00000000
Au      62.76000000      77.04000000      22.04000000
Au      64.80000000      75.00000000      22.04000000
Au      64.80000000      77.04000000      20.00000000
Au      62.76000000      75.00000000      24.08000000
Au      62.76000000      77.04000000      26.12000000
Au      64.80000000      75.00000000      26.12000000
Au      64.80000000      77.04000000      24.08000000
Au      62.76000000      75.00000000      28.16000000
Au      62.76000000      77.04000000      30.20000000
Au      64.80000000      75.00000000      30.20000000
Au      64.80000000      77.04000000      28.16000000
Au      62.76000000      75.00000000      32.24000000
Au      62.76000000      77.04000000      34.28000000
Au      64.80000000      75.00000000      34.28000000
Au      64.80000000      77.04000000      32.24000000
Au      62.76000000      75.00000000      36.32000000
Au      62.76000000      77.04000000      38.36000000
Au      64.80000000      75.00000000      38.36000000
Au      64.80000000      77.04000000      36.32000000
Au      64.80000000      77.04000000      40.40000000
Au      64.80000000      79.08000000       1.64000000
Au      62.76000000      79.08000000       3.68000000
Au      62.76000000      81.12000000       5.72000000
Au      64.80000000      79.08000000       5.72000000
Au      64.80000000      81.12000000       3.68000000
Au      62.76000000      79.08000000       7.76000000
Au      62.76000000      81.12000000       9.80000000
Au      64.80000000      79.08000000       9.80000000
Au      64.80000000      81.12000000       7.76000000
Au      62.76000000      79.08000000      11.84000000
Au      62.76000000      81.12000000      13.88000000
Au      64.80000000      79.08000000      13.88000000
Au      64.80000000      81.12000000      11.84000000
Au      62.76000000      79.08000000      15.92000000
Au      62.76000000      81.12000000      17.96000000
Au      64.80000000      79.08000000      17.96000000
Au      64.80000000      81.12000000      15.92000000
Au      62.76000000      79.08000000      20.00000000
Au      62.76000000      81.12000000      22.04000000
Au      64.80000000      79.08000000      22.04000000
Au      64.80000000      81.12000000      20.00000000
Au      62.76000000      79.08000000      24.08000000
Au      62.76000000      81.12000000      26.12000000
Au      64.80000000      79.08000000      26.12000000
Au      64.80000000      81.12000000      24.08000000
Au      62.76000000      79.08000000      28.16000000
Au      62.76000000      81.12000000      30.20000000
Au      64.80000000      79.08000000      30.20000000
Au      64.80000000      81.12000000      28.16000000
Au      62.76000000      79.08000000      32.24000000
Au      62.76000000      81.12000000      34.28000000
Au      64.80000000      79.08000000      34.28000000
Au      64.80000000      81.12000000      32.24000000
Au      62.76000000      79.08000000      36.32000000
Au      64.80000000      79.08000000      38.36000000
Au      64.80000000      81.12000000      36.32000000
Au      64.80000000      83.16000000       5.72000000
Au      62.76000000      83.16000000       7.76000000
Au      62.76000000      85.20000000       9.80000000
Au      64.80000000      83.16000000       9.80000000
Au      64.80000000      85.20000000       7.76000000
Au      62.76000000      83.16000000      11.84000000
Au      62.76000000      85.20000000      13.88000000
Au      64.80000000      83.16000000      13.88000000
Au      64.80000000      85.20000000      11.84000000
Au      62.76000000      83.16000000      15.92000000
Au      62.76000000      85.20000000      17.96000000
Au      64.80000000      83.16000000      17.96000000
Au      64.80000000      85.20000000      15.92000000
Au      62.76000000      83.16000000      20.00000000
Au      62.76000000      85.20000000      22.04000000
Au      64.80000000      83.16000000      22.04000000
Au      64.80000000      85.20000000      20.00000000
Au      62.76000000      83.16000000      24.08000000
Au      62.76000000      85.20000000      26.12000000
Au      64.80000000      83.16000000      26.12000000
Au      64.80000000      85.20000000      24.08000000
Au      62.76000000      83.16000000      28.16000000
Au      62.76000000      85.20000000      30.20000000
Au      64.80000000      83.16000000      30.20000000
Au      64.80000000      85.20000000      28.16000000
Au      62.76000000      83.16000000      32.24000000
Au      64.80000000      83.16000000      34.28000000
Au      64.80000000      85.20000000      32.24000000
Au      64.80000000      87.24000000       9.80000000
Au      62.76000000      87.24000000      11.84000000
Au      62.76000000      89.28000000      13.88000000
Au      64.80000000      87.24000000      13.88000000
Au      64.80000000      89.28000000      11.84000000
Au      62.76000000      87.24000000      15.92000000
Au      62.76000000      89.28000000      17.96000000
Au      64.80000000      87.24000000      17.96000000
Au      64.80000000      89.28000000      15.92000000
Au      62.76000000      87.24000000      20.00000000
Au      62.76000000      89.28000000      22.04000000
Au      64.80000000      87.24000000      22.04000000
Au      64.80000000      89.28000000      20.00000000
Au      62.76000000      87.24000000      24.08000000
Au      62.76000000      89.28000000      26.12000000
Au      64.80000000      87.24000000      26.12000000
Au      64.80000000      89.28000000      24.08000000
Au      62.76000000      87.24000000      28.16000000
Au      64.80000000      87.24000000      30.20000000
Au      64.80000000      89.28000000      28.16000000
Au      64.80000000      91.32000000      13.88000000
Au      62.76000000      91.32000000      15.92000000
Au      62.76000000      93.36000000      17.96000000
Au      64.80000000      91.32000000      17.96000000
Au      64.80000000      93.36000000      15.92000000
Au      62.76000000      91.32000000      20.00000000
Au      62.76000000      93.36000000      22.04000000
Au      64.80000000      91.32000000      22.04000000
Au      64.80000000      93.36000000      20.00000000
Au      62.76000000      91.32000000      24.08000000
Au      64.80000000      91.32000000      26.12000000
Au      64.80000000      93.36000000      24.08000000
Au      64.80000000      95.40000000      17.96000000
Au      64.80000000      95.40000000      22.04000000
Au      66.84000000      56.64000000      13.88000000
Au      68.88000000      54.60000000      13.88000000
Au      68.88000000      56.64000000      11.84000000
Au      66.84000000      54.60000000      15.92000000
Au      66.84000000      56.64000000      17.96000000
Au      68.88000000      54.60000000      17.96000000
Au      68.88000000      56.64000000      15.92000000
Au      66.84000000      54.60000000      20.00000000
Au      66.84000000      56.64000000      22.04000000
Au      68.88000000      54.60000000      22.04000000
Au      68.88000000      56.64000000      20.00000000
Au      66.84000000      54.60000000      24.08000000
Au      66.84000000      56.64000000      26.12000000
Au      68.88000000      54.60000000      26.12000000
Au      68.88000000      56.64000000      24.08000000
Au      68.88000000      56.64000000      28.16000000
Au      66.84000000      60.72000000       9.80000000
Au      68.88000000      58.68000000       9.80000000
Au      68.88000000      60.72000000       7.76000000
Au      66.84000000      58.68000000      11.84000000
Au      66.84000000      60.72000000      13.88000000
Au      68.88000000      58.68000000      13.88000000
Au      68.88000000      60.72000000      11.84000000
Au      66.84000000      58.68000000      15.92000000
Au      66.84000000      60.72000000      17.96000000
Au      68.88000000      58.68000000      17.96000000
Au      68.88000000      60.72000000      15.92000000
Au      66.84000000      58.68000000      20.00000000
Au      66.84000000      60.72000000      22.04000000
Au      68.88000000      58.68000000      22.04000000
Au      68.88000000      60.72000000      20.00000000
Au      66.84000000      58.68000000      24.08000000
Au      66.84000000      60.72000000      26.12000000
Au      68.88000000      58.68000000      26.12000000
Au      68.88000000      60.72000000      24.08000000
Au      66.84000000      58.68000000      28.16000000
Au      66.84000000      60.72000000      30.20000000
Au      68.88000000      58.68000000      30.20000000
Au      68.88000000      60.72000000      28.16000000
Au      68.88000000      60.72000000      32.24000000
Au      66.84000000      64.80000000       5.72000000
Au      68.88000000      62.76000000       5.72000000
Au      68.88000000      64.80000000       3.68000000
Au      66.84000000      62.76000000       7.76000000
Au      66.84000000      64.80000000       9.80000000
Au      68.88000000      62.76000000       9.80000000
Au      68.88000000      64.80000000       7.76000000
Au      66.84000000      62.76000000      11.84000000
Au      66.84000000      64.80000000      13.88000000
Au      68.88000000      62.76000000      13.88000000
Au      68.88000000      64.80000000      11.84000000
Au      66.84000000      62.76000000      15.92000000
Au      66.84000000      64.80000000      17.96000000
Au      68.88000000      62.76000000      17.96000000
Au      68.88000000      64.80000000      15.92000000
Au      66.84000000      62.76000000      20.00000000
Au      66.84000000      64.80000000      22.04000000
Au      68.88000000      62.76000000      22.04000000
Au      68.88000000      64.80000000      20.00000000
Au      66.84000000      62.76000000      24.08000000
Au      66.84000000      64.80000000      26.12000000
Au      68.88000000      62.76000000      26.12000000
Au      68.88000000      64.80000000      24.08000000
Au      66.84000000      62.76000000      28.16000000
Au      66.84000000      64.80000000      30.20000000
Au      68.88000000      62.76000000      30.20000000
Au      68.88000000      64.80000000      28.16000000
Au      66.84000000      62.76000000      32.24000000
Au      66.84000000      64.80000000      34.28000000
Au      68.88000000      62.76000000      34.28000000
Au      68.88000000      64.80000000      32.24000000
Au      68.88000000      64.80000000      36.32000000
Au      66.84000000      68.88000000       1.64000000
Au      68.88000000      66.84000000       1.64000000
Au      68.88000000      68.88000000      -0.40000000
Au      66.84000000      66.84000000       3.68000000
Au      66.84000000      68.88000000       5.72000000
Au      68.88000000      66.84000000       5.72000000
Au      68.88000000      68.88000000       3.68000000
Au      66.84000000      66.84000000       7.76000000
Au      66.84000000      68.88000000       9.80000000
Au      68.88000000      66.84000000       9.80000000
Au      68.88000000      68.88000000       7.76000000
Au      66.84000000      66.84000000      11.84000000
Au      66.84000000      68.88000000      13.88000000
Au      68.88000000      66.84000000      13.88000000
Au      68.88000000      68.88000000      11.84000000
Au      66.84000000      66.84000000      15.92000000
Au      66.84000000      68.88000000      17.96000000
Au      68.88000000      66.84000000      17.96000000
Au      68.88000000      68.88000000      15.92000000
Au      66.84000000      66.84000000      20.00000000
Au      66.84000000      68.88000000      22.04000000
Au      68.88000000      66.84000000      22.04000000
Au      68.88000000      68.88000000      20.00000000
Au      66.84000000      66.84000000      24.08000000
Au      66.84000000      68.88000000      26.12000000
Au      68.88000000      66.84000000      26.12000000
Au      68.88000000      68.88000000      24.08000000
Au      66.84000000      66.84000000      28.16000000
Au      66.84000000      68.88000000      30.20000000
Au      68.88000000      66.84000000      30.20000000
Au      68.88000000      68.88000000      28.16000000
Au      66.84000000      66.84000000      32.24000000
Au      66.84000000      68.88000000      34.28000000
Au      68.88000000      66.84000000      34.28000000
Au      68.88000000      68.88000000      32.24000000
Au      66.84000000      66.84000000      36.32000000
Au      66.84000000      68.88000000      38.36000000
Au      68.88000000      66.84000000      38.36000000
Au      68.88000000      68.88000000      36.32000000
Au      68.88000000      68.88000000      40.40000000
Au      66.84000000      70.92000000      -0.40000000
Au      66.84000000      72.96000000       1.64000000
Au      68.88000000      70.92000000       1.64000000
Au      68.88000000      72.96000000      -0.40000000
Au      66.84000000      70.92000000       3.68000000
Au      66.84000000      72.96000000       5.72000000
Au      68.88000000      70.92000000       5.72000000
Au      68.88000000      72.96000000       3.68000000
Au      66.84000000      70.92000000       7.76000000
Au      66.84000000      72.96000000       9.80000000
Au      68.88000000      70.92000000       9.80000000
Au      68.88000000      72.96000000       7.76000000
Au      66.84000000      70.92000000      11.84000000
Au      66.84000000      72.96000000      13.88000000
Au      68.88000000      70.92000000      13.88000000
Au      68.88000000      72.96000000      11.84000000
Au      66.84000000      70.92000000      15.92000000
Au      66.84000000      72.96000000      17.96000000
Au      68.88000000      70.92000000      17.96000000
Au      68.88000000      72.96000000      15.92000000
Au      66.84000000      70.92000000      20.00000000
Au      66.84000000      72.96000000      22.04000000
Au      68.88000000      70.92000000      22.04000000
Au      68.88000000      72.96000000      20.00000000
Au      66.84000000      70.92000000      24.08000000
Au      66.84000000      72.96000000      26.12000000
Au      68.88000000      70.92000000      26.12000000
Au      68.88000000      72.96000000      24.08000000
Au      66.84000000      70.92000000      28.16000000
Au      66.84000000      72.96000000      30.20000000
Au      68.88000000      70.92000000      30.20000000
Au      68.88000000      72.96000000      28.16000000
Au      66.84000000      70.92000000      32.24000000
Au      66.84000000      72.96000000      34.28000000
Au      68.88000000      70.92000000      34.28000000
Au      68.88000000      72.96000000      32.24000000
Au      66.84000000      70.92000000      36.32000000
Au      66.84000000      72.96000000      38.36000000
Au      68.88000000      70.92000000      38.36000000
Au      68.88000000      72.96000000      36.32000000
Au      66.84000000      70.92000000      40.40000000
Au      68.88000000      72.96000000      40.40000000
Au      66.84000000      75.00000000      -0.40000000
Au      66.84000000      77.04000000       1.64000000
Au      68.88000000      75.00000000       1.64000000
Au      68.88000000      77.04000000      -0.40000000
Au      66.84000000      75.00000000       3.68000000
Au      66.84000000      77.04000000       5.72000000
Au      68.88000000      75.00000000       5.72000000
Au      68.88000000      77.04000000       3.68000000
Au      66.84000000      75.00000000       7.76000000
Au      66.84000000      77.04000000       9.80000000
Au      68.88000000      75.00000000       9.80000000
Au      68.88000000      77.04000000       7.76000000
Au      66.84000000      75.00000000      11.84000000
Au      66.84000000      77.04000000      13.88000000
Au      68.88000000      75.00000000      13.88000000
Au      68.88000000      77.04000000      11.84000000
Au      66.84000000      75.00000000      15.92000000
Au      66.84000000      77.04000000      17.96000000
Au      68.88000000      75.00000000      17.96000000
Au      68.88000000      77.04000000      15.92000000
Au      66.84000000      75.00000000      20.00000000
Au      66.84000000      77.04000000      22.04000000
Au      68.88000000      75.00000000      22.04000000
Au      68.88000000      77.04000000      20.00000000
Au      66.84000000      75.00000000      24.08000000
Au      66.84000000      77.04000000      26.12000000
Au      68.88000000      75.00000000      26.12000000
Au      68.88000000      77.04000000      24.08000000
Au      66.84000000      75.00000000      28.16000000
Au      66.84000000      77.04000000      30.20000000
Au      68.88000000      75.00000000      30.20000000
Au      68.88000000      77.04000000      28.16000000
Au      66.84000000      75.00000000      32.24000000
Au      66.84000000      77.04000000      34.28000000
Au      68.88000000      75.00000000      34.28000000
Au      68.88000000      77.04000000      32.24000000
Au      66.84000000      75.00000000      36.32000000
Au      66.84000000      77.04000000      38.36000000
Au      68.88000000      75.00000000      38.36000000
Au      68.88000000      77.04000000      36.32000000
Au      66.84000000      75.00000000      40.40000000
Au      68.88000000      77.04000000      40.40000000
Au      66.84000000      79.08000000      -0.40000000
Au      66.84000000      81.12000000       1.64000000
Au      68.88000000      79.08000000       1.64000000
Au      68.88000000      81.12000000      -0.40000000
Au      66.84000000      79.08000000       3.68000000
Au      66.84000000      81.12000000       5.72000000
Au      68.88000000      79.08000000       5.72000000
Au      68.88000000      81.12000000       3.68000000
Au      66.84000000      79.08000000       7.76000000
Au      66.84000000      81.12000000       9.80000000
Au      68.88000000      79.08000000       9.80000000
Au      68.88000000      81.12000000       7.76000000
Au      66.84000000      79.08000000      11.84000000
Au      66.84000000      81.12000000      13.88000000
Au      68.88000000      79.08000000      13.88000000
Au      68.88000000      81.12000000      11.84000000
Au      66.84000000      79.08000000      15.92000000
Au      66.84000000      81.12000000      17.96000000
Au      68.88000000      79.08000000      17.96000000
Au      68.88000000      81.12000000      15.92000000
Au      66.84000000      79.08000000      20.00000000
Au      66.84000000      81.12000000      22.04000000
Au      68.88000000      79.08000000      22.04000000
Au      68.88000000      81.12000000      20.00000000
Au      66.84000000      79.08000000      24.08000000
Au      66.84000000      81.12000000      26.12000000
Au      68.88000000      79.08000000      26.12000000
Au      68.88000000      81.12000000      24.08000000
Au      66.84000000      79.08000000      28.16000000
Au      66.84000000      81.12000000      30.20000000
Au      68.88000000      79.08000000      30.20000000
Au      68.88000000      81.12000000      28.16000000
Au      66.84000000      79.08000000      32.24000000
Au      66.84000000      81.12000000      34.28000000
Au      68.88000000      79.08000000      34.28000000
Au      68.88000000      81.12000000      32.24000000
Au      66.84000000      79.08000000      36.32000000
Au      66.84000000      81.12000000      38.36000000
Au      68.88000000      79.08000000      38.36000000
Au      68.88000000      81.12000000      36.32000000
Au      66.84000000      79.08000000      40.40000000
Au      68.88000000      81.12000000      40.40000000
Au      68.88000000      83.16000000       1.64000000
Au      66.84000000      83.16000000       3.68000000
Au      66.84000000      85.20000000       5.72000000
Au      68.88000000      83.16000000       5.72000000
Au      68.88000000      85.20000000       3.68000000
Au      66.84000000      83.16000000       7.76000000
Au      66.84000000      85.20000000       9.80000000
Au      68.88000000      83.16000000       9.80000000
Au      68.88000000      85.20000000       7.76000000
Au      66.84000000      83.16000000      11.84000000
Au      66.84000000      85.20000000      13.88000000
Au      68.88000000      83.16000000      13.88000000
Au      68.88000000      85.20000000      11.84000000
Au      66.84000000      83.16000000      15.92000000
Au      66.84000000      85.20000000      17.96000000
Au      68.88000000      83.16000000      17.96000000
Au      68.88000000      85.20000000      15.92000000
Au      66.84000000      83.16000000      20.00000000
Au      66.84000000      85.20000000      22.04000000
Au      68.88000000      83.16000000      22.04000000
Au      68.88000000      85.20000000      20.00000000
Au      66.84000000      83.16000000      24.08000000
Au      66.84000000      85.20000000      26.12000000
Au      68.88000000      83.16000000      26.12000000
Au      68.88000000      85.20000000      24.08000000
Au      66.84000000      83.16000000      28.16000000
Au      66.84000000      85.20000000      30.20000000
Au      68.88000000      83.16000000      30.20000000
Au      68.88000000      85.20000000      28.16000000
Au      66.84000000      83.16000000      32.24000000
Au      66.84000000      85.20000000      34.28000000
Au      68.88000000      83.16000000      34.28000000
Au      68.88000000      85.20000000      32.24000000
Au      66.84000000      83.16000000      36.32000000
Au      68.88000000      83.16000000      38.36000000
Au      68.88000000      85.20000000      36.32000000
Au      68.88000000      87.24000000       5.72000000
Au      66.84000000      87.24000000       7.76000000
Au      66.84000000      89.28000000       9.80000000
Au      68.88000000      87.24000000       9.80000000
Au      68.88000000      89.28000000       7.76000000
Au      66.84000000      87.24000000      11.84000000
Au      66.84000000      89.28000000      13.88000000
Au      68.88000000      87.24000000      13.88000000
Au      68.88000000      89.28000000      11.84000000
Au      66.84000000      87.24000000      15.92000000
Au      66.84000000      89.28000000      17.96000000
Au      68.88000000      87.24000000      17.96000000
Au      68.88000000      89.28000000      15.92000000
Au      66.84000000      87.24000000      20.00000000
Au      66.84000000      89.28000000      22.04000000
Au      68.88000000      87.24000000      22.04000000
Au      68.88000000      89.28000000      20.00000000
Au      66.84000000      87.24000000      24.08000000
Au      66.84000000      89.28000000      26.12000000
Au      68.88000000      87.24000000      26.12000000
Au      68.88000000      89.28000000      24.08000000
Au      66.84000000      87.24000000      28.16000000
Au      66.84000000      89.28000000      30.20000000
Au      68.88000000      87.24000000      30.20000000
Au      68.88000000      89.28000000      28.16000000
Au      66.84000000      87.24000000      32.24000000
Au      68.88000000      87.24000000      34.28000000
Au      68.88000000      89.28000000      32.24000000
Au      68.88000000      91.32000000       9.80000000
Au      66.84000000      91.32000000      11.84000000
Au      66.84000000      93.36000000      13.88000000
Au      68.88000000      91.32000000      13.88000000
Au      68.88000000      93.36000000      11.84000000
Au      66.84000000      91.32000000      15.92000000
Au      66.84000000      93.36000000      17.96000000
Au      68.88000000      91.32000000      17.96000000
Au      68.88000000      93.36000000      15.92000000
Au      66.84000000      91.32000000      20.00000000
Au      66.84000000      93.36000000      22.04000000
Au      68.88000000      91.32000000      22.04000000
Au      68.88000000      93.36000000      20.00000000
Au      66.84000000      91.32000000      24.08000000
Au      66.84000000      93.36000000      26.12000000
Au      68.88000000      91.32000000      26.12000000
Au      68.88000000      93.36000000      24.08000000
Au      66.84000000      91.32000000      28.16000000
Au      68.88000000      91.32000000      30.20000000
Au      68.88000000      93.36000000      28.16000000
Au      68.88000000      95.40000000      13.88000000
Au      66.84000000      95.40000000      15.92000000
Au      68.88000000      95.40000000      17.96000000
Au      66.84000000      95.40000000      20.00000000
Au      68.88000000      95.40000000      22.04000000
Au      66.84000000      95.40000000      24.08000000
Au      68.88000000      95.40000000      26.12000000
Au      70.92000000      56.64000000       9.80000000
Au      72.96000000      54.60000000       9.80000000
Au      72.96000000      56.64000000       7.76000000
Au      70.92000000      54.60000000      11.84000000
Au      70.92000000      56.64000000      13.88000000
Au      72.96000000      54.60000000      13.88000000
Au      72.96000000      56.64000000      11.84000000
Au      70.92000000      54.60000000      15.92000000
Au      70.92000000      56.64000000      17.96000000
Au      72.96000000      54.60000000      17.96000000
Au      72.96000000      56.64000000      15.92000000
Au      70.92000000      54.60000000      20.00000000
Au      70.92000000      56.64000000      22.04000000
Au      72.96000000      54.60000000      22.04000000
Au      72.96000000      56.64000000      20.00000000
Au      70.92000000      54.60000000      24.08000000
Au      70.92000000      56.64000000      26.12000000
Au      72.96000000      54.60000000      26.12000000
Au      72.96000000      56.64000000      24.08000000
Au      70.92000000      54.60000000      28.16000000
Au      70.92000000      56.64000000      30.20000000
Au      72.96000000      54.60000000      30.20000000
Au      72.96000000      56.64000000      28.16000000
Au      72.96000000      56.64000000      32.24000000
Au      70.92000000      60.72000000       5.72000000
Au      72.96000000      58.68000000       5.72000000
Au      72.96000000      60.72000000       3.68000000
Au      70.92000000      58.68000000       7.76000000
Au      70.92000000      60.72000000       9.80000000
Au      72.96000000      58.68000000       9.80000000
Au      72.96000000      60.72000000       7.76000000
Au      70.92000000      58.68000000      11.84000000
Au      70.92000000      60.72000000      13.88000000
Au      72.96000000      58.68000000      13.88000000
Au      72.96000000      60.72000000      11.84000000
Au      70.92000000      58.68000000      15.92000000
Au      70.92000000      60.72000000      17.96000000
Au      72.96000000      58.68000000      17.96000000
Au      72.96000000      60.72000000      15.92000000
Au      70.92000000      58.68000000      20.00000000
Au      70.92000000      60.72000000      22.04000000
Au      72.96000000      58.68000000      22.04000000
Au      72.96000000      60.72000000      20.00000000
Au      70.92000000      58.68000000      24.08000000
Au      70.92000000      60.72000000      26.12000000
Au      72.96000000      58.68000000      26.12000000
Au      72.96000000      60.72000000      24.08000000
Au      70.92000000      58.68000000      28.16000000
Au      70.92000000      60.72000000      30.20000000
Au      72.96000000      58.68000000      30.20000000
Au      72.96000000      60.72000000      28.16000000
Au      70.92000000      58.68000000      32.24000000
Au      70.92000000      60.72000000      34.28000000
Au      72.96000000      58.68000000      34.28000000
Au      72.96000000      60.72000000      32.24000000
Au      72.96000000      60.72000000      36.32000000
Au      70.92000000      64.80000000       1.64000000
Au      72.96000000      62.76000000       1.64000000
Au      72.96000000      64.80000000      -0.40000000
Au      70.92000000      62.76000000       3.68000000
Au      70.92000000      64.80000000       5.72000000
Au      72.96000000      62.76000000       5.72000000
Au      72.96000000      64.80000000       3.68000000
Au      70.92000000      62.76000000       7.76000000
Au      70.92000000      64.80000000       9.80000000
Au      72.96000000      62.76000000       9.80000000
Au      72.96000000      64.80000000       7.76000000
Au      70.92000000      62.76000000      11.84000000
Au      70.92000000      64.80000000      13.88000000
Au      72.96000000      62.76000000      13.88000000
Au      72.96000000      64.80000000      11.84000000
Au      70.92000000      62.76000000      15.92000000
Au      70.92000000      64.80000000      17.96000000
Au      72.96000000      62.76000000      17.96000000
Au      72.96000000      64.80000000      15.92000000
Au      70.92000000      62.76000000      20.00000000
Au      70.92000000      64.80000000      22.04000000
Au      72.96000000      62.76000000      22.04000000
Au      72.96000000      64.80000000      20.00000000
Au      70.92000000      62.76000000      24.08000000
Au      70.92000000      64.80000000      26.12000000
Au      72.96000000      62.76000000      26.12000000
Au      72.96000000      64.80000000      24.08000000
Au      70.92000000      62.76000000      28.16000000
Au      70.92000000      64.80000000      30.20000000
Au      72.96000000      62.76000000      30.20000000
Au      72.96000000      64.80000000      28.16000000
Au      70.92000000      62.76000000      32.24000000
Au      70.92000000      64.80000000      34.28000000
Au      72.96000000      62.76000000      34.28000000
Au      72.96000000      64.80000000      32.24000000
Au      70.92000000      62.76000000      36.32000000
Au      70.92000000      64.80000000      38.36000000
Au      72.96000000      62.76000000      38.36000000
Au      72.96000000      64.80000000      36.32000000
Au      72.96000000      64.80000000      40.40000000
Au      70.92000000      66.84000000      -0.40000000
Au      70.92000000      68.88000000       1.64000000
Au      72.96000000      66.84000000       1.64000000
Au      72.96000000      68.88000000      -0.40000000
Au      70.92000000      66.84000000       3.68000000
Au      70.92000000      68.88000000       5.72000000
Au      72.96000000      66.84000000       5.72000000
Au      72.96000000      68.88000000       3.68000000
Au      70.92000000      66.84000000       7.76000000
Au      70.92000000      68.88000000       9.80000000
Au      72.96000000      66.84000000       9.80000000
Au      72.96000000      68.88000000       7.76000000
Au      70.92000000      66.84000000      11.84000000
Au      70.92000000      68.88000000      13.88000000
Au      72.96000000      66.84000000      13.88000000
Au      72.96000000      68.88000000      11.84000000
Au      70.92000000      66.84000000      15.92000000
Au      70.92000000      68.88000000      17.96000000
Au      72.96000000      66.84000000      17.96000000
Au      72.96000000      68.88000000      15.92000000
Au      70.92000000      66.84000000      20.00000000
Au      70.92000000      68.88000000      22.04000000
Au      72.96000000      66.84000000      22.04000000
Au      72.96000000      68.88000000      20.00000000
Au      70.92000000      66.84000000      24.08000000
Au      70.92000000      68.88000000      26.12000000
Au      72.96000000      66.84000000      26.12000000
Au      72.96000000      68.88000000      24.08000000
Au      70.92000000      66.84000000      28.16000000
Au      70.92000000      68.88000000      30.20000000
Au      72.96000000      66.84000000      30.20000000
Au      72.96000000      68.88000000      28.16000000
Au      70.92000000      66.84000000      32.24000000
Au      70.92000000      68.88000000      34.28000000
Au      72.96000000      66.84000000      34.28000000
Au      72.96000000      68.88000000      32.24000000
Au      70.92000000      66.84000000      36.32000000
Au      70.92000000      68.88000000      38.36000000
Au      72.96000000      66.84000000      38.36000000
Au      72.96000000      68.88000000      36.32000000
Au      70.92000000      66.84000000      40.40000000
Au      72.96000000      68.88000000      40.40000000
Au      70.92000000      70.92000000      -0.40000000
Au      70.92000000      72.96000000       1.64000000
Au      72.96000000      70.92000000       1.64000000
Au      72.96000000      72.96000000      -0.40000000
Au      70.92000000      70.92000000       3.68000000
Au      70.92000000      72.96000000       5.72000000
Au      72.96000000      70.92000000       5.72000000
Au      72.96000000      72.96000000       3.68000000
Au      70.92000000      70.92000000       7.76000000
Au      70.92000000      72.96000000       9.80000000
Au      72.96000000      70.92000000       9.80000000
Au      72.96000000      72.96000000       7.76000000
Au      70.92000000      70.92000000      11.84000000
Au      70.92000000      72.96000000      13.88000000
Au      72.96000000      70.92000000      13.88000000
Au      72.96000000      72.96000000      11.84000000
Au      70.92000000      70.92000000      15.92000000
Au      70.92000000      72.96000000      17.96000000
Au      72.96000000      70.92000000      17.96000000
Au      72.96000000      72.96000000      15.92000000
Au      70.92000000      70.92000000      20.00000000
Au      70.92000000      72.96000000      22.04000000
Au      72.96000000      70.92000000      22.04000000
Au      72.96000000      72.96000000      20.00000000
Au      70.92000000      70.92000000      24.08000000
Au      70.92000000      72.96000000      26.12000000
Au      72.96000000      70.92000000      26.12000000
Au      72.96000000      72.96000000      24.08000000
Au      70.92000000      70.92000000      28.16000000
Au      70.92000000      72.96000000      30.20000000
Au      72.96000000      70.92000000      30.20000000
Au      72.96000000      72.96000000      28.16000000
Au      70.92000000      70.92000000      32.24000000
Au      70.92000000      72.96000000      34.28000000
Au      72.96000000      70.92000000      34.28000000
Au      72.96000000      72.96000000      32.24000000
Au      70.92000000      70.92000000      36.32000000
Au      70.92000000      72.96000000      38.36000000
Au      72.96000000      70.92000000      38.36000000
Au      72.96000000      72.96000000      36.32000000
Au      70.92000000      70.92000000      40.40000000
Au      72.96000000      72.96000000      40.40000000
Au      70.92000000      75.00000000      -0.40000000
Au      70.92000000      77.04000000       1.64000000
Au      72.96000000      75.00000000       1.64000000
Au      72.96000000      77.04000000      -0.40000000
Au      70.92000000      75.00000000       3.68000000
Au      70.92000000      77.04000000       5.72000000
Au      72.96000000      75.00000000       5.72000000
Au      72.96000000      77.04000000       3.68000000
Au      70.92000000      75.00000000       7.76000000
Au      70.92000000      77.04000000       9.80000000
Au      72.96000000      75.00000000       9.80000000
Au      72.96000000      77.04000000       7.76000000
Au      70.92000000      75.00000000      11.84000000
Au      70.92000000      77.04000000      13.88000000
Au      72.96000000      75.00000000      13.88000000
Au      72.96000000      77.04000000      11.84000000
Au      70.92000000      75.00000000      15.92000000
Au      70.92000000      77.04000000      17.96000000
Au      72.96000000      75.00000000      17.96000000
Au      72.96000000      77.04000000      15.92000000
Au      70.92000000      75.00000000      20.00000000
Au      70.92000000      77.04000000      22.04000000
Au      72.96000000      75.00000000      22.04000000
Au      72.96000000      77.04000000      20.00000000
Au      70.92000000      75.00000000      24.08000000
Au      70.92000000      77.04000000      26.12000000
Au      72.96000000      75.00000000      26.12000000
Au      72.96000000      77.04000000      24.08000000
Au      70.92000000      75.00000000      28.16000000
Au      70.92000000      77.04000000      30.20000000
Au      72.96000000      75.00000000      30.20000000
Au      72.96000000      77.04000000      28.16000000
Au      70.92000000      75.00000000      32.24000000
Au      70.92000000      77.04000000      34.28000000
Au      72.96000000      75.00000000      34.28000000
Au      72.96000000      77.04000000      32.24000000
Au      70.92000000      75.00000000      36.32000000
Au      70.92000000      77.04000000      38.36000000
Au      72.96000000      75.00000000      38.36000000
Au      72.96000000      77.04000000      36.32000000
Au      70.92000000      75.00000000      40.40000000
Au      72.96000000      77.04000000      40.40000000
Au      70.92000000      79.08000000      -0.40000000
Au      70.92000000      81.12000000       1.64000000
Au      72.96000000      79.08000000       1.64000000
Au      72.96000000      81.12000000      -0.40000000
Au      70.92000000      79.08000000       3.68000000
Au      70.92000000      81.12000000       5.72000000
Au      72.96000000      79.08000000       5.72000000
Au      72.96000000      81.12000000       3.68000000
Au      70.92000000      79.08000000       7.76000000
Au      70.92000000      81.12000000       9.80000000
Au      72.96000000      79.08000000       9.80000000
Au      72.96000000      81.12000000       7.76000000
Au      70.92000000      79.08000000      11.84000000
Au      70.92000000      81.12000000      13.88000000
Au      72.96000000      79.08000000      13.88000000
Au      72.96000000      81.12000000      11.84000000
Au      70.92000000      79.08000000      15.92000000
Au      70.92000000      81.12000000      17.96000000
Au      72.96000000      79.08000000      17.96000000
Au      72.96000000      81.12000000      15.92000000
Au      70.92000000      79.08000000      20.00000000
Au      70.92000000      81.12000000      22.04000000
Au      72.96000000      79.08000000      22.04000000
Au      72.96000000      81.12000000      20.00000000
Au      70.92000000      79.08000000      24.08000000
Au      70.92000000      81.12000000      26.12000000
Au      72.96000000      79.08000000      26.12000000
Au      72.96000000      81.12000000      24.08000000
Au      70.92000000      79.08000000      28.16000000
Au      70.92000000      81.12000000      30.20000000
Au      72.96000000      79.08000000      30.20000000
Au      72.96000000      81.12000000      28.16000000
Au      70.92000000      79.08000000      32.24000000
Au      70.92000000      81.12000000      34.28000000
Au      72.96000000      79.08000000      34.28000000
Au      72.96000000      81.12000000      32.24000000
Au      70.92000000      79.08000000      36.32000000
Au      70.92000000      81.12000000      38.36000000
Au      72.96000000      79.08000000      38.36000000
Au      72.96000000      81.12000000      36.32000000
Au      70.92000000      79.08000000      40.40000000
Au      72.96000000      81.12000000      40.40000000
Au      70.92000000      83.16000000      -0.40000000
Au      70.92000000      85.20000000       1.64000000
Au      72.96000000      83.16000000       1.64000000
Au      72.96000000      85.20000000      -0.40000000
Au      70.92000000      83.16000000       3.68000000
Au      70.92000000      85.20000000       5.72000000
Au      72.96000000      83.16000000       5.72000000
Au      72.96000000      85.20000000       3.68000000
Au      70.92000000      83.16000000       7.76000000
Au      70.92000000      85.20000000       9.80000000
Au      72.96000000      83.16000000       9.80000000
Au      72.96000000      85.20000000       7.76000000
Au      70.92000000      83.16000000      11.84000000
Au      70.92000000      85.20000000      13.88000000
Au      72.96000000      83.16000000      13.88000000
Au      72.96000000      85.20000000      11.84000000
Au      70.92000000      83.16000000      15.92000000
Au      70.92000000      85.20000000      17.96000000
Au      72.96000000      83.16000000      17.96000000
Au      72.96000000      85.20000000      15.92000000
Au      70.92000000      83.16000000      20.00000000
Au      70.92000000      85.20000000      22.04000000
Au      72.96000000      83.16000000      22.04000000
Au      72.96000000      85.20000000      20.00000000
Au      70.92000000      83.16000000      24.08000000
Au      70.92000000      85.20000000      26.12000000
Au      72.96000000      83.16000000      26.12000000
Au      72.96000000      85.20000000      24.08000000
Au      70.92000000      83.16000000      28.16000000
Au      70.92000000      85.20000000      30.20000000
Au      72.96000000      83.16000000      30.20000000
Au      72.96000000      85.20000000      28.16000000
Au      70.92000000      83.16000000      32.24000000
Au      70.92000000      85.20000000      34.28000000
Au      72.96000000      83.16000000      34.28000000
Au      72.96000000      85.20000000      32.24000000
Au      70.92000000      83.16000000      36.32000000
Au      70.92000000      85.20000000      38.36000000
Au      72.96000000      83.16000000      38.36000000
Au      72.96000000      85.20000000      36.32000000
Au      70.92000000      83.16000000      40.40000000
Au      72.96000000      85.20000000      40.40000000
Au      72.96000000      87.24000000       1.64000000
Au      70.92000000      87.24000000       3.68000000
Au      70.92000000      89.28000000       5.72000000
Au      72.96000000      87.24000000       5.72000000
Au      72.96000000      89.28000000       3.68000000
Au      70.92000000      87.24000000       7.76000000
Au      70.92000000      89.28000000       9.80000000
Au      72.96000000      87.24000000       9.80000000
Au      72.96000000      89.28000000       7.76000000
Au      70.92000000      87.24000000      11.84000000
Au      70.92000000      89.28000000      13.88000000
Au      72.96000000      87.24000000      13.88000000
Au      72.96000000      89.28000000      11.84000000
Au      70.92000000      87.24000000      15.92000000
Au      70.92000000      89.28000000      17.96000000
Au      72.96000000      87.24000000      17.96000000
Au      72.96000000      89.28000000      15.92000000
Au      70.92000000      87.24000000      20.00000000
Au      70.92000000      89.28000000      22.04000000
Au      72.96000000      87.24000000      22.04000000
Au      72.96000000      89.28000000      20.00000000
Au      70.92000000      87.24000000      24.08000000
Au      70.92000000      89.28000000      26.12000000
Au      72.96000000      87.24000000      26.12000000
Au      72.96000000      89.28000000      24.08000000
Au      70.92000000      87.24000000      28.16000000
Au      70.92000000      89.28000000      30.20000000
Au      72.96000000      87.24000000      30.20000000
Au      72.96000000      89.28000000      28.16000000
Au      70.92000000      87.24000000      32.24000000
Au      70.92000000      89.28000000      34.28000000
Au      72.96000000      87.24000000      34.28000000
Au      72.96000000      89.28000000      32.24000000
Au      70.92000000      87.24000000      36.32000000
Au      72.96000000      87.24000000      38.36000000
Au      72.96000000      89.28000000      36.32000000
Au      72.96000000      91.32000000       5.72000000
Au      70.92000000      91.32000000       7.76000000
Au      70.92000000      93.36000000       9.80000000
Au      72.96000000      91.32000000       9.80000000
Au      72.96000000      93.36000000       7.76000000
Au      70.92000000      91.32000000      11.84000000
Au      70.92000000      93.36000000      13.88000000
Au      72.96000000      91.32000000      13.88000000
Au      72.96000000      93.36000000      11.84000000
Au      70.92000000      91.32000000      15.92000000
Au      70.92000000      93.36000000      17.96000000
Au      72.96000000      91.32000000      17.96000000
Au      72.96000000      93.36000000      15.92000000
Au      70.92000000      91.32000000      20.00000000
Au      70.92000000      93.36000000      22.04000000
Au      72.96000000      91.32000000      22.04000000
Au      72.96000000      93.36000000      20.00000000
Au      70.92000000      91.32000000      24.08000000
Au      70.92000000      93.36000000      26.12000000
Au      72.96000000      91.32000000      26.12000000
Au      72.96000000      93.36000000      24.08000000
Au      70.92000000      91.32000000      28.16000000
Au      70.92000000      93.36000000      30.20000000
Au      72.96000000      91.32000000      30.20000000
Au      72.96000000      93.36000000      28.16000000
Au      70.92000000      91.32000000      32.24000000
Au      72.96000000      91.32000000      34.28000000
Au      72.96000000      93.36000000      32.24000000
Au      72.96000000      95.40000000       9.80000000
Au      70.92000000      95.40000000      11.84000000
Au      72.96000000      95.40000000      13.88000000
Au      70.92000000      95.40000000      15.92000000
Au      72.96000000      95.40000000      17.96000000
Au      70.92000000      95.40000000      20.00000000
Au      72.96000000      95.40000000      22.04000000
Au      70.92000000      95.40000000      24.08000000
Au      72.96000000      95.40000000      26.12000000
Au      70.92000000      95.40000000      28.16000000
Au      72.96000000      95.40000000      30.20000000
Au      75.00000000      56.64000000       9.80000000
Au      77.04000000      54.60000000       9.80000000
Au      77.04000000      56.64000000       7.76000000
Au      75.00000000      54.60000000      11.84000000
Au      75.00000000      56.64000000      13.88000000
Au      77.04000000      54.60000000      13.88000000
Au      77.04000000      56.64000000      11.84000000
Au      75.00000000      54.60000000      15.92000000
Au      75.00000000      56.64000000      17.96000000
Au      77.04000000      54.60000000      17.96000000
Au      77.04000000      56.64000000      15.92000000
Au      75.00000000      54.60000000      20.00000000
Au      75.00000000      56.64000000      22.04000000
Au      77.04000000      54.60000000      22.04000000
Au      77.04000000      56.64000000      20.00000000
Au      75.00000000      54.60000000      24.08000000
Au      75.00000000      56.64000000      26.12000000
Au      77.04000000      54.60000000      26.12000000
Au      77.04000000      56.64000000      24.08000000
Au      75.00000000      54.60000000      28.16000000
Au      75.00000000      56.64000000      30.20000000
Au      77.04000000      54.60000000      30.20000000
Au      77.04000000      56.64000000      28.16000000
Au      77.04000000      56.64000000      32.24000000
Au      75.00000000      60.72000000       5.72000000
Au      77.04000000      58.68000000       5.72000000
Au      77.04000000      60.72000000       3.68000000
Au      75.00000000      58.68000000       7.76000000
Au      75.00000000      60.72000000       9.80000000
Au      77.04000000      58.68000000       9.80000000
Au      77.04000000      60.72000000       7.76000000
Au      75.00000000      58.68000000      11.84000000
Au      75.00000000      60.72000000      13.88000000
Au      77.04000000      58.68000000      13.88000000
Au      77.04000000      60.72000000      11.84000000
Au      75.00000000      58.68000000      15.92000000
Au      75.00000000      60.72000000      17.96000000
Au      77.04000000      58.68000000      17.96000000
Au      77.04000000      60.72000000      15.92000000
Au      75.00000000      58.68000000      20.00000000
Au      75.00000000      60.72000000      22.04000000
Au      77.04000000      58.68000000      22.04000000
Au      77.04000000      60.72000000      20.00000000
Au      75.00000000      58.68000000      24.08000000
Au      75.00000000      60.72000000      26.12000000
Au      77.04000000      58.68000000      26.12000000
Au      77.04000000      60.72000000      24.08000000
Au      75.00000000      58.68000000      28.16000000
Au      75.00000000      60.72000000      30.20000000
Au      77.04000000      58.68000000      30.20000000
Au      77.04000000      60.72000000      28.16000000
Au      75.00000000      58.68000000      32.24000000
Au      75.00000000      60.72000000      34.28000000
Au      77.04000000      58.68000000      34.28000000
Au      77.04000000      60.72000000      32.24000000
Au      77.04000000      60.72000000      36.32000000
Au      75.00000000      64.80000000       1.64000000
Au      77.04000000      62.76000000       1.64000000
Au      77.04000000      64.80000000      -0.40000000
Au      75.00000000      62.76000000       3.68000000
Au      75.00000000      64.80000000       5.72000000
Au      77.04000000      62.76000000       5.72000000
Au      77.04000000      64.80000000       3.68000000
Au      75.00000000      62.76000000       7.76000000
Au      75.00000000      64.80000000       9.80000000
Au      77.04000000      62.76000000       9.80000000
Au      77.04000000      64.80000000       7.76000000
Au      75.00000000      62.76000000      11.84000000
Au      75.00000000      64.80000000      13.88000000
Au      77.04000000      62.76000000      13.88000000
Au      77.04000000      64.80000000      11.84000000
Au      75.00000000      62.76000000      15.92000000
Au      75.00000000      64.80000000      17.96000000
Au      77.04000000      62.76000000      17.96000000
Au      77.04000000      64.80000000      15.92000000
Au      75.00000000      62.76000000      20.00000000
Au      75.00000000      64.80000000      22.04000000
Au      77.04000000      62.76000000      22.04000000
Au      77.04000000      64.80000000      20.00000000
Au      75.00000000      62.76000000      24.08000000
Au      75.00000000      64.80000000      26.12000000
Au      77.04000000      62.76000000      26.12000000
Au      77.04000000      64.80000000      24.08000000
Au      75.00000000      62.76000000      28.16000000
Au      75.00000000      64.80000000      30.20000000
Au      77.04000000      62.76000000      30.20000000
Au      77.04000000      64.80000000      28.16000000
Au      75.00000000      62.76000000      32.24000000
Au      75.00000000      64.80000000      34.28000000
Au      77.04000000      62.76000000      34.28000000
Au      77.04000000      64.80000000      32.24000000
Au      75.00000000      62.76000000      36.32000000
Au      75.00000000      64.80000000      38.36000000
Au      77.04000000      62.76000000      38.36000000
Au      77.04000000      64.80000000      36.32000000
Au      77.04000000      64.80000000      40.40000000
Au      75.00000000      66.84000000      -0.40000000
Au      75.00000000      68.88000000       1.64000000
Au      77.04000000      66.84000000       1.64000000
Au      77.04000000      68.88000000      -0.40000000
Au      75.00000000      66.84000000       3.68000000
Au      75.00000000      68.88000000       5.72000000
Au      77.04000000      66.84000000       5.72000000
Au      77.04000000      68.88000000       3.68000000
Au      75.00000000      66.84000000       7.76000000
Au      75.00000000      68.88000000       9.80000000
Au      77.04000000      66.84000000       9.80000000
Au      77.04000000      68.88000000       7.76000000
Au      75.00000000      66.84000000      11.84000000
Au      75.00000000      68.88000000      13.88000000
Au      77.04000000      66.84000000      13.88000000
Au      77.04000000      68.88000000      11.84000000
Au      75.00000000      66.84000000      15.92000000
Au      75.00000000      68.88000000      17.96000000
Au      77.04000000      66.84000000      17.96000000
Au      77.04000000      68.88000000      15.92000000
Au      75.00000000      66.84000000      20.00000000
Au      75.00000000      68.88000000      22.04000000
Au      77.04000000      66.84000000      22.04000000
Au      77.04000000      68.88000000      20.00000000
Au      75.00000000      66.84000000      24.08000000
Au      75.00000000      68.88000000      26.12000000
Au      77.04000000      66.84000000      26.12000000
Au      77.04000000      68.88000000      24.08000000
Au      75.00000000      66.84000000      28.16000000
Au      75.00000000      68.88000000      30.20000000
Au      77.04000000      66.84000000      30.20000000
Au      77.04000000      68.88000000      28.16000000
Au      75.00000000      66.84000000      32.24000000
Au      75.00000000      68.88000000      34.28000000
Au      77.04000000      66.84000000      34.28000000
Au      77.04000000      68.88000000      32.24000000
Au      75.00000000      66.84000000      36.32000000
Au      75.00000000      68.88000000      38.36000000
Au      77.04000000      66.84000000      38.36000000
Au      77.04000000      68.88000000      36.32000000
Au      75.00000000      66.84000000      40.40000000
Au      77.04000000      68.88000000      40.40000000
Au      75.00000000      70.92000000      -0.40000000
Au      75.00000000      72.96000000       1.64000000
Au      77.04000000      70.92000000       1.64000000
Au      77.04000000      72.96000000      -0.40000000
Au      75.00000000      70.92000000       3.68000000
Au      75.00000000      72.96000000       5.72000000
Au      77.04000000      70.92000000       5.72000000
Au      77.04000000      72.96000000       3.68000000
Au      75.00000000      70.92000000       7.76000000
Au      75.00000000      72.96000000       9.80000000
Au      77.04000000      70.92000000       9.80000000
Au      77.04000000      72.96000000       7.76000000
Au      75.00000000      70.92000000      11.84000000
Au      75.00000000      72.96000000      13.88000000
Au      77.04000000      70.92000000      13.88000000
Au      77.04000000      72.96000000      11.84000000
Au      75.00000000      70.92000000      15.92000000
Au      75.00000000      72.96000000      17.96000000
Au      77.04000000      70.92000000      17.96000000
Au      77.04000000      72.96000000      15.92000000
Au      75.00000000      70.92000000      20.00000000
Au      75.00000000      72.96000000      22.04000000
Au      77.04000000      70.92000000      22.04000000
Au      77.04000000      72.96000000      20.00000000
Au      75.00000000      70.92000000      24.08000000
Au      75.00000000      72.96000000      26.12000000
Au      77.04000000      70.92000000      26.12000000
Au      77.04000000      72.96000000      24.08000000
Au      75.00000000      70.92000000      28.16000000
Au      75.00000000      72.96000000      30.20000000
Au      77.04000000      70.92000000      30.20000000
Au      77.04000000      72.96000000      28.16000000
Au      75.00000000      70.92000000      32.24000000
Au      75.00000000      72.96000000      34.28000000
Au      77.04000000      70.92000000      34.28000000
Au      77.04000000      72.96000000      32.24000000
Au      75.00000000      70.92000000      36.32000000
Au      75.00000000      72.96000000      38.36000000
Au      77.04000000      70.92000000      38.36000000
Au      77.04000000      72.96000000      36.32000000
Au      75.00000000      70.92000000      40.40000000
Au      77.04000000      72.96000000      40.40000000
Au      75.00000000      75.00000000      -0.40000000
Au      75.00000000      77.04000000       1.64000000
Au      77.04000000      75.00000000       1.64000000
Au      77.04000000      77.04000000      -0.40000000
Au      75.00000000      75.00000000       3.68000000
Au      75.00000000      77.04000000       5.72000000
Au      77.04000000      75.00000000       5.72000000
Au      77.04000000      77.04000000       3.68000000
Au      75.00000000      75.00000000       7.76000000
Au      75.00000000      77.04000000       9.80000000
Au      77.04000000      75.00000000       9.80000000
Au      77.04000000      77.04000000       7.76000000
Au      75.00000000      75.00000000      11.84000000
Au      75.00000000      77.04000000      13.88000000
Au      77.04000000      75.00000000      13.88000000
Au      77.04000000      77.04000000      11.84000000
Au      75.00000000      75.00000000      15.92000000
Au      75.00000000      77.04000000      17.96000000
Au      77.04000000      75.00000000      17.96000000
Au      77.04000000      77.04000000      15.92000000
Au      75.00000000      75.00000000      20.00000000
Au      75.00000000      77.04000000      22.04000000
Au      77.04000000      75.00000000      22.04000000
Au      77.04000000      77.04000000      20.00000000
Au      75.00000000      75.00000000      24.08000000
Au      75.00000000      77.04000000      26.12000000
Au      77.04000000      75.00000000      26.12000000
Au      77.04000000      77.04000000      24.08000000
Au      75.00000000      75.00000000      28.16000000
Au      75.00000000      77.04000000      30.20000000
Au      77.04000000      75.00000000      30.20000000
Au      77.04000000      77.04000000      28.16000000
Au      75.00000000      75.00000000      32.24000000
Au      75.00000000      77.04000000      34.28000000
Au      77.04000000      75.00000000      34.28000000
Au      77.04000000      77.04000000      32.24000000
Au      75.00000000      75.00000000      36.32000000
Au      75.00000000      77.04000000      38.36000000
Au      77.04000000      75.00000000      38.36000000
Au      77.04000000      77.04000000      36.32000000
Au      75.00000000      75.00000000      40.40000000
Au      77.04000000      77.04000000      40.40000000
Au      75.00000000      79.08000000      -0.40000000
Au      75.00000000      81.12000000       1.64000000
Au      77.04000000      79.08000000       1.64000000
Au      77.04000000      81.12000000      -0.40000000
Au      75.00000000      79.08000000       3.68000000
Au      75.00000000      81.12000000       5.72000000
Au      77.04000000      79.08000000       5.72000000
Au      77.04000000      81.12000000       3.68000000
Au      75.00000000      79.08000000       7.76000000
Au      75.00000000      81.12000000       9.80000000
Au      77.04000000      79.08000000       9.80000000
Au      77.04000000      81.12000000       7.76000000
Au      75.00000000      79.08000000      11.84000000
Au      75.00000000      81.12000000      13.88000000
Au      77.04000000      79.08000000      13.88000000
Au      77.04000000      81.12000000      11.84000000
Au      75.00000000      79.08000000      15.92000000
Au      75.00000000      81.12000000      17.96000000
Au      77.04000000      79.08000000      17.96000000
Au      77.04000000      81.12000000      15.92000000
Au      75.00000000      79.08000000      20.00000000
Au      75.00000000      81.12000000      22.04000000
Au      77.04000000      79.08000000      22.04000000
Au      77.04000000      81.12000000      20.00000000
Au      75.00000000      79.08000000      24.08000000
Au      75.00000000      81.12000000      26.12000000
Au      77.04000000      79.08000000      26.12000000
Au      77.04000000      81.12000000      24.08000000
Au      75.00000000      79.08000000      28.16000000
Au      75.00000000      81.12000000      30.20000000
Au      77.04000000      79.08000000      30.20000000
Au      77.04000000      81.12000000      28.16000000
Au      75.00000000      79.08000000      32.24000000
Au      75.00000000      81.12000000      34.28000000
Au      77.04000000      79.08000000      34.28000000
Au      77.04000000      81.12000000      32.24000000
Au      75.00000000      79.08000000      36.32000000
Au      75.00000000      81.12000000      38.36000000
Au      77.04000000      79.08000000      38.36000000
Au      77.04000000      81.12000000      36.32000000
Au      75.00000000      79.08000000      40.40000000
Au      77.04000000      81.12000000      40.40000000
Au      75.00000000      83.16000000      -0.40000000
Au      75.00000000      85.20000000       1.64000000
Au      77.04000000      83.16000000       1.64000000
Au      77.04000000      85.20000000      -0.40000000
Au      75.00000000      83.16000000       3.68000000
Au      75.00000000      85.20000000       5.72000000
Au      77.04000000      83.16000000       5.72000000
Au      77.04000000      85.20000000       3.68000000
Au      75.00000000      83.16000000       7.76000000
Au      75.00000000      85.20000000       9.80000000
Au      77.04000000      83.16000000       9.80000000
Au      77.04000000      85.20000000       7.76000000
Au      75.00000000      83.16000000      11.84000000
Au      75.00000000      85.20000000      13.88000000
Au      77.04000000      83.16000000      13.88000000
Au      77.04000000      85.20000000      11.84000000
Au      75.00000000      83.16000000      15.92000000
Au      75.00000000      85.20000000      17.96000000
Au      77.04000000      83.16000000      17.96000000
Au      77.04000000      85.20000000      15.92000000
Au      75.00000000      83.16000000      20.00000000
Au      75.00000000      85.20000000      22.04000000
Au      77.04000000      83.16000000      22.04000000
Au      77.04000000      85.20000000      20.00000000
Au      75.00000000      83.16000000      24.08000000
Au      75.00000000      85.20000000      26.12000000
Au      77.04000000      83.16000000      26.12000000
Au      77.04000000      85.20000000      24.08000000
Au      75.00000000      83.16000000      28.16000000
Au      75.00000000      85.20000000      30.20000000
Au      77.04000000      83.16000000      30.20000000
Au      77.04000000      85.20000000      28.16000000
Au      75.00000000      83.16000000      32.24000000
Au      75.00000000      85.20000000      34.28000000
Au      77.04000000      83.16000000      34.28000000
Au      77.04000000      85.20000000      32.24000000
Au      75.00000000      83.16000000      36.32000000
Au      75.00000000      85.20000000      38.36000000
Au      77.04000000      83.16000000      38.36000000
Au      77.04000000      85.20000000      36.32000000
Au      75.00000000      83.16000000      40.40000000
Au      77.04000000      85.20000000      40.40000000
Au      77.04000000      87.24000000       1.64000000
Au      75.00000000      87.24000000       3.68000000
Au      75.00000000      89.28000000       5.72000000
Au      77.04000000      87.24000000       5.72000000
Au      77.04000000      89.28000000       3.68000000
Au      75.00000000      87.24000000       7.76000000
Au      75.00000000      89.28000000       9.80000000
Au      77.04000000      87.24000000       9.80000000
Au      77.04000000      89.28000000       7.76000000
Au      75.00000000      87.24000000      11.84000000
Au      75.00000000      89.28000000      13.88000000
Au      77.04000000      87.24000000      13.88000000
Au      77.04000000      89.28000000      11.84000000
Au      75.00000000      87.24000000      15.92000000
Au      75.00000000      89.28000000      17.96000000
Au      77.04000000      87.24000000      17.96000000
Au      77.04000000      89.28000000      15.92000000
Au      75.00000000      87.24000000      20.00000000
Au      75.00000000      89.28000000      22.04000000
Au      77.04000000      87.24000000      22.04000000
Au      77.04000000      89.28000000      20.00000000
Au      75.00000000      87.24000000      24.08000000
Au      75.00000000      89.28000000      26.12000000
Au      77.04000000      87.24000000      26.12000000
Au      77.04000000      89.28000000      24.08000000
Au      75.00000000      87.24000000      28.16000000
Au      75.00000000      89.28000000      30.20000000
Au      77.04000000      87.24000000      30.20000000
Au      77.04000000      89.28000000      28.16000000
Au      75.00000000      87.24000000      32.24000000
Au      75.00000000      89.28000000      34.28000000
Au      77.04000000      87.24000000      34.28000000
Au      77.04000000      89.28000000      32.24000000
Au      75.00000000      87.24000000      36.32000000
Au      77.04000000      87.24000000      38.36000000
Au      77.04000000      89.28000000      36.32000000
Au      77.04000000      91.32000000       5.72000000
Au      75.00000000      91.32000000       7.76000000
Au      75.00000000      93.36000000       9.80000000
Au      77.04000000      91.32000000       9.80000000
Au      77.04000000      93.36000000       7.76000000
Au      75.00000000      91.32000000      11.84000000
Au      75.00000000      93.36000000      13.88000000
Au      77.04000000      91.32000000      13.88000000
Au      77.04000000      93.36000000      11.84000000
Au      75.00000000      91.32000000      15.92000000
Au      75.00000000      93.36000000      17.96000000
Au      77.04000000      91.32000000      17.96000000
Au      77.04000000      93.36000000      15.92000000
Au      75.00000000      91.32000000      20.00000000
Au      75.00000000      93.36000000      22.04000000
Au      77.04000000      91.32000000      22.04000000
Au      77.04000000      93.36000000      20.00000000
Au      75.00000000      91.32000000      24.08000000
Au      75.00000000      93.36000000      26.12000000
Au      77.04000000      91.32000000      26.12000000
Au      77.04000000      93.36000000      24.08000000
Au      75.00000000      91.32000000      28.16000000
Au      75.00000000      93.36000000      30.20000000
Au      77.04000000      91.32000000      30.20000000
Au      77.04000000      93.36000000      28.16000000
Au      75.00000000      91.32000000      32.24000000
Au      77.04000000      91.32000000      34.28000000
Au      77.04000000      93.36000000      32.24000000
Au      77.04000000      95.40000000       9.80000000
Au      75.00000000      95.40000000      11.84000000
Au      77.04000000      95.40000000      13.88000000
Au      75.00000000      95.40000000      15.92000000
Au      77.04000000      95.40000000      17.96000000
Au      75.00000000      95.40000000      20.00000000
Au      77.04000000      95.40000000      22.04000000
Au      75.00000000      95.40000000      24.08000000
Au      77.04000000      95.40000000      26.12000000
Au      75.00000000      95.40000000      28.16000000
Au      77.04000000      95.40000000      30.20000000
Au      79.08000000      56.64000000       9.80000000
Au      79.08000000      54.60000000      11.84000000
Au      79.08000000      56.64000000      13.88000000
Au      81.12000000      54.60000000      13.88000000
Au      81.12000000      56.64000000      11.84000000
Au      79.08000000      54.60000000      15.92000000
Au      79.08000000      56.64000000      17.96000000
Au      81.12000000      54.60000000      17.96000000
Au      81.12000000      56.64000000      15.92000000
Au      79.08000000      54.60000000      20.00000000
Au      79.08000000      56.64000000      22.04000000
Au      81.12000000      54.60000000      22.04000000
Au      81.12000000      56.64000000      20.00000000
Au      79.08000000      54.60000000      24.08000000
Au      79.08000000      56.64000000      26.12000000
Au      81.12000000      54.60000000      26.12000000
Au      81.12000000      56.64000000      24.08000000
Au      79.08000000      54.60000000      28.16000000
Au      79.08000000      56.64000000      30.20000000
Au      81.12000000      56.64000000      28.16000000
Au      79.08000000      60.72000000       5.72000000
Au      79.08000000      58.68000000       7.76000000
Au      79.08000000      60.72000000       9.80000000
Au      81.12000000      58.68000000       9.80000000
Au      81.12000000      60.72000000       7.76000000
Au      79.08000000      58.68000000      11.84000000
Au      79.08000000      60.72000000      13.88000000
Au      81.12000000      58.68000000      13.88000000
Au      81.12000000      60.72000000      11.84000000
Au      79.08000000      58.68000000      15.92000000
Au      79.08000000      60.72000000      17.96000000
Au      81.12000000      58.68000000      17.96000000
Au      81.12000000      60.72000000      15.92000000
Au      79.08000000      58.68000000      20.00000000
Au      79.08000000      60.72000000      22.04000000
Au      81.12000000      58.68000000      22.04000000
Au      81.12000000      60.72000000      20.00000000
Au      79.08000000      58.68000000      24.08000000
Au      79.08000000      60.72000000      26.12000000
Au      81.12000000      58.68000000      26.12000000
Au      81.12000000      60.72000000      24.08000000
Au      79.08000000      58.68000000      28.16000000
Au      79.08000000      60.72000000      30.20000000
Au      81.12000000      58.68000000      30.20000000
Au      81.12000000      60.72000000      28.16000000
Au      79.08000000      58.68000000      32.24000000
Au      79.08000000      60.72000000      34.28000000
Au      81.12000000      60.72000000      32.24000000
Au      79.08000000      64.80000000       1.64000000
Au      79.08000000      62.76000000       3.68000000
Au      79.08000000      64.80000000       5.72000000
Au      81.12000000      62.76000000       5.72000000
Au      81.12000000      64.80000000       3.68000000
Au      79.08000000      62.76000000       7.76000000
Au      79.08000000      64.80000000       9.80000000
Au      81.12000000      62.76000000       9.80000000
Au      81.12000000      64.80000000       7.76000000
Au      79.08000000      62.76000000      11.84000000
Au      79.08000000      64.80000000      13.88000000
Au      81.12000000      62.76000000      13.88000000
Au      81.12000000      64.80000000      11.84000000
Au      79.08000000      62.76000000      15.92000000
Au      79.08000000      64.80000000      17.96000000
Au      81.12000000      62.76000000      17.96000000
Au      81.12000000      64.80000000      15.92000000
Au      79.08000000      62.76000000      20.00000000
Au      79.08000000      64.80000000      22.04000000
Au      81.12000000      62.76000000      22.04000000
Au      81.12000000      64.80000000      20.00000000
Au      79.08000000      62.76000000      24.08000000
Au      79.08000000      64.80000000      26.12000000
Au      81.12000000      62.76000000      26.12000000
Au      81.12000000      64.80000000      24.08000000
Au      79.08000000      62.76000000      28.16000000
Au      79.08000000      64.80000000      30.20000000
Au      81.12000000      62.76000000      30.20000000
Au      81.12000000      64.80000000      28.16000000
Au      79.08000000      62.76000000      32.24000000
Au      79.08000000      64.80000000      34.28000000
Au      81.12000000      62.76000000      34.28000000
Au      81.12000000      64.80000000      32.24000000
Au      79.08000000      62.76000000      36.32000000
Au      79.08000000      64.80000000      38.36000000
Au      81.12000000      64.80000000      36.32000000
Au      79.08000000      66.84000000      -0.40000000
Au      79.08000000      68.88000000       1.64000000
Au      81.12000000      66.84000000       1.64000000
Au      81.12000000      68.88000000      -0.40000000
Au      79.08000000      66.84000000       3.68000000
Au      79.08000000      68.88000000       5.72000000
Au      81.12000000      66.84000000       5.72000000
Au      81.12000000      68.88000000       3.68000000
Au      79.08000000      66.84000000       7.76000000
Au      79.08000000      68.88000000       9.80000000
Au      81.12000000      66.84000000       9.80000000
Au      81.12000000      68.88000000       7.76000000
Au      79.08000000      66.84000000      11.84000000
Au      79.08000000      68.88000000      13.88000000
Au      81.12000000      66.84000000      13.88000000
Au      81.12000000      68.88000000      11.84000000
Au      79.08000000      66.84000000      15.92000000
Au      79.08000000      68.88000000      17.96000000
Au      81.12000000      66.84000000      17.96000000
Au      81.12000000      68.88000000      15.92000000
Au      79.08000000      66.84000000      20.00000000
Au      79.08000000      68.88000000      22.04000000
Au      81.12000000      66.84000000      22.04000000
Au      81.12000000      68.88000000      20.00000000
Au      79.08000000      66.84000000      24.08000000
Au      79.08000000      68.88000000      26.12000000
Au      81.12000000      66.84000000      26.12000000
Au      81.12000000      68.88000000      24.08000000
Au      79.08000000      66.84000000      28.16000000
Au      79.08000000      68.88000000      30.20000000
Au      81.12000000      66.84000000      30.20000000
Au      81.12000000      68.88000000      28.16000000
Au      79.08000000      66.84000000      32.24000000
Au      79.08000000      68.88000000      34.28000000
Au      81.12000000      66.84000000      34.28000000
Au      81.12000000      68.88000000      32.24000000
Au      79.08000000      66.84000000      36.32000000
Au      79.08000000      68.88000000      38.36000000
Au      81.12000000      66.84000000      38.36000000
Au      81.12000000      68.88000000      36.32000000
Au      79.08000000      66.84000000      40.40000000
Au      81.12000000      68.88000000      40.40000000
Au      79.08000000      70.92000000      -0.40000000
Au      79.08000000      72.96000000       1.64000000
Au      81.12000000      70.92000000       1.64000000
Au      81.12000000      72.96000000      -0.40000000
Au      79.08000000      70.92000000       3.68000000
Au      79.08000000      72.96000000       5.72000000
Au      81.12000000      70.92000000       5.72000000
Au      81.12000000      72.96000000       3.68000000
Au      79.08000000      70.92000000       7.76000000
Au      79.08000000      72.96000000       9.80000000
Au      81.12000000      70.92000000       9.80000000
Au      81.12000000      72.96000000       7.76000000
Au      79.08000000      70.92000000      11.84000000
Au      79.08000000      72.96000000      13.88000000
Au      81.12000000      70.92000000      13.88000000
Au      81.12000000      72.96000000      11.84000000
Au      79.08000000      70.92000000      15.92000000
Au      79.08000000      72.96000000      17.96000000
Au      81.12000000      70.92000000      17.96000000
Au      81.12000000      72.96000000      15.92000000
Au      79.08000000      70.92000000      20.00000000
Au      79.08000000      72.96000000      22.04000000
Au      81.12000000      70.92000000      22.04000000
Au      81.12000000      72.96000000      20.00000000
Au      79.08000000      70.92000000      24.08000000
Au      79.08000000      72.96000000      26.12000000
Au      81.12000000      70.92000000      26.12000000
Au      81.12000000      72.96000000      24.08000000
Au      79.08000000      70.92000000      28.16000000
Au      79.08000000      72.96000000      30.20000000
Au      81.12000000      70.92000000      30.20000000
Au      81.12000000      72.96000000      28.16000000
Au      79.08000000      70.92000000      32.24000000
Au      79.08000000      72.96000000      34.28000000
Au      81.12000000      70.92000000      34.28000000
Au      81.12000000      72.96000000      32.24000000
Au      79.08000000      70.92000000      36.32000000
Au      79.08000000      72.96000000      38.36000000
Au      81.12000000      70.92000000      38.36000000
Au      81.12000000      72.96000000      36.32000000
Au      79.08000000      70.92000000      40.40000000
Au      81.12000000      72.96000000      40.40000000
Au      79.08000000      75.00000000      -0.40000000
Au      79.08000000      77.04000000       1.64000000
Au      81.12000000      75.00000000       1.64000000
Au      81.12000000      77.04000000      -0.40000000
Au      79.08000000      75.00000000       3.68000000
Au      79.08000000      77.04000000       5.72000000
Au      81.12000000      75.00000000       5.72000000
Au      81.12000000      77.04000000       3.68000000
Au      79.08000000      75.00000000       7.76000000
Au      79.08000000      77.04000000       9.80000000
Au      81.12000000      75.00000000       9.80000000
Au      81.12000000      77.04000000       7.76000000
Au      79.08000000      75.00000000      11.84000000
Au      79.08000000      77.04000000      13.88000000
Au      81.12000000      75.00000000      13.88000000
Au      81.12000000      77.04000000      11.84000000
Au      79.08000000      75.00000000      15.92000000
Au      79.08000000      77.04000000      17.96000000
Au      81.12000000      75.00000000      17.96000000
Au      81.12000000      77.04000000      15.92000000
Au      79.08000000      75.00000000      20.00000000
Au      79.08000000      77.04000000      22.04000000
Au      81.12000000      75.00000000      22.04000000
Au      81.12000000      77.04000000      20.00000000
Au      79.08000000      75.00000000      24.08000000
Au      79.08000000      77.04000000      26.12000000
Au      81.12000000      75.00000000      26.12000000
Au      81.12000000      77.04000000      24.08000000
Au      79.08000000      75.00000000      28.16000000
Au      79.08000000      77.04000000      30.20000000
Au      81.12000000      75.00000000      30.20000000
Au      81.12000000      77.04000000      28.16000000
Au      79.08000000      75.00000000      32.24000000
Au      79.08000000      77.04000000      34.28000000
Au      81.12000000      75.00000000      34.28000000
Au      81.12000000      77.04000000      32.24000000
Au      79.08000000      75.00000000      36.32000000
Au      79.08000000      77.04000000      38.36000000
Au      81.12000000      75.00000000      38.36000000
Au      81.12000000      77.04000000      36.32000000
Au      79.08000000      75.00000000      40.40000000
Au      81.12000000      77.04000000      40.40000000
Au      79.08000000      79.08000000      -0.40000000
Au      79.08000000      81.12000000       1.64000000
Au      81.12000000      79.08000000       1.64000000
Au      81.12000000      81.12000000      -0.40000000
Au      79.08000000      79.08000000       3.68000000
Au      79.08000000      81.12000000       5.72000000
Au      81.12000000      79.08000000       5.72000000
Au      81.12000000      81.12000000       3.68000000
Au      79.08000000      79.08000000       7.76000000
Au      79.08000000      81.12000000       9.80000000
Au      81.12000000      79.08000000       9.80000000
Au      81.12000000      81.12000000       7.76000000
Au      79.08000000      79.08000000      11.84000000
Au      79.08000000      81.12000000      13.88000000
Au      81.12000000      79.08000000      13.88000000
Au      81.12000000      81.12000000      11.84000000
Au      79.08000000      79.08000000      15.92000000
Au      79.08000000      81.12000000      17.96000000
Au      81.12000000      79.08000000      17.96000000
Au      81.12000000      81.12000000      15.92000000
Au      79.08000000      79.08000000      20.00000000
Au      79.08000000      81.12000000      22.04000000
Au      81.12000000      79.08000000      22.04000000
Au      81.12000000      81.12000000      20.00000000
Au      79.08000000      79.08000000      24.08000000
Au      79.08000000      81.12000000      26.12000000
Au      81.12000000      79.08000000      26.12000000
Au      81.12000000      81.12000000      24.08000000
Au      79.08000000      79.08000000      28.16000000
Au      79.08000000      81.12000000      30.20000000
Au      81.12000000      79.08000000      30.20000000
Au      81.12000000      81.12000000      28.16000000
Au      79.08000000      79.08000000      32.24000000
Au      79.08000000      81.12000000      34.28000000
Au      81.12000000      79.08000000      34.28000000
Au      81.12000000      81.12000000      32.24000000
Au      79.08000000      79.08000000      36.32000000
Au      79.08000000      81.12000000      38.36000000
Au      81.12000000      79.08000000      38.36000000
Au      81.12000000      81.12000000      36.32000000
Au      79.08000000      79.08000000      40.40000000
Au      81.12000000      81.12000000      40.40000000
Au      79.08000000      83.16000000      -0.40000000
Au      79.08000000      85.20000000       1.64000000
Au      81.12000000      83.16000000       1.64000000
Au      79.08000000      83.16000000       3.68000000
Au      79.08000000      85.20000000       5.72000000
Au      81.12000000      83.16000000       5.72000000
Au      81.12000000      85.20000000       3.68000000
Au      79.08000000      83.16000000       7.76000000
Au      79.08000000      85.20000000       9.80000000
Au      81.12000000      83.16000000       9.80000000
Au      81.12000000      85.20000000       7.76000000
Au      79.08000000      83.16000000      11.84000000
Au      79.08000000      85.20000000      13.88000000
Au      81.12000000      83.16000000      13.88000000
Au      81.12000000      85.20000000      11.84000000
Au      79.08000000      83.16000000      15.92000000
Au      79.08000000      85.20000000      17.96000000
Au      81.12000000      83.16000000      17.96000000
Au      81.12000000      85.20000000      15.92000000
Au      79.08000000      83.16000000      20.00000000
Au      79.08000000      85.20000000      22.04000000
Au      81.12000000      83.16000000      22.04000000
Au      81.12000000      85.20000000      20.00000000
Au      79.08000000      83.16000000      24.08000000
Au      79.08000000      85.20000000      26.12000000
Au      81.12000000      83.16000000      26.12000000
Au      81.12000000      85.20000000      24.08000000
Au      79.08000000      83.16000000      28.16000000
Au      79.08000000      85.20000000      30.20000000
Au      81.12000000      83.16000000      30.20000000
Au      81.12000000      85.20000000      28.16000000
Au      79.08000000      83.16000000      32.24000000
Au      79.08000000      85.20000000      34.28000000
Au      81.12000000      83.16000000      34.28000000
Au      81.12000000      85.20000000      32.24000000
Au      79.08000000      83.16000000      36.32000000
Au      79.08000000      85.20000000      38.36000000
Au      81.12000000      83.16000000      38.36000000
Au      81.12000000      85.20000000      36.32000000
Au      79.08000000      83.16000000      40.40000000
Au      79.08000000      87.24000000       3.68000000
Au      79.08000000      89.28000000       5.72000000
Au      81.12000000      87.24000000       5.72000000
Au      79.08000000      87.24000000       7.76000000
Au      79.08000000      89.28000000       9.80000000
Au      81.12000000      87.24000000       9.80000000
Au      81.12000000      89.28000000       7.76000000
Au      79.08000000      87.24000000      11.84000000
Au      79.08000000      89.28000000      13.88000000
Au      81.12000000      87.24000000      13.88000000
Au      81.12000000      89.28000000      11.84000000
Au      79.08000000      87.24000000      15.92000000
Au      79.08000000      89.28000000      17.96000000
Au      81.12000000      87.24000000      17.96000000
Au      81.12000000      89.28000000      15.92000000
Au      79.08000000      87.24000000      20.00000000
Au      79.08000000      89.28000000      22.04000000
Au      81.12000000      87.24000000      22.04000000
Au      81.12000000      89.28000000      20.00000000
Au      79.08000000      87.24000000      24.08000000
Au      79.08000000      89.28000000      26.12000000
Au      81.12000000      87.24000000      26.12000000
Au      81.12000000      89.28000000      24.08000000
Au      79.08000000      87.24000000      28.16000000
Au      79.08000000      89.28000000      30.20000000
Au      81.12000000      87.24000000      30.20000000
Au      81.12000000      89.28000000      28.16000000
Au      79.08000000      87.24000000      32.24000000
Au      79.08000000      89.28000000      34.28000000
Au      81.12000000      87.24000000      34.28000000
Au      81.12000000      89.28000000      32.24000000
Au      79.08000000      87.24000000      36.32000000
Au      79.08000000      91.32000000       7.76000000
Au      79.08000000      93.36000000       9.80000000
Au      81.12000000      91.32000000       9.80000000
Au      79.08000000      91.32000000      11.84000000
Au      79.08000000      93.36000000      13.88000000
Au      81.12000000      91.32000000      13.88000000
Au      81.12000000      93.36000000      11.84000000
Au      79.08000000      91.32000000      15.92000000
Au      79.08000000      93.36000000      17.96000000
Au      81.12000000      91.32000000      17.96000000
Au      81.12000000      93.36000000      15.92000000
Au      79.08000000      91.32000000      20.00000000
Au      79.08000000      93.36000000      22.04000000
Au      81.12000000      91.32000000      22.04000000
Au      81.12000000      93.36000000      20.00000000
Au      79.08000000      91.32000000      24.08000000
Au      79.08000000      93.36000000      26.12000000
Au      81.12000000      91.32000000      26.12000000
Au      81.12000000      93.36000000      24.08000000
Au      79.08000000      91.32000000      28.16000000
Au      79.08000000      93.36000000      30.20000000
Au      81.12000000      91.32000000      30.20000000
Au      81.12000000      93.36000000      28.16000000
Au      79.08000000      91.32000000      32.24000000
Au      79.08000000      95.40000000      11.84000000
Au      81.12000000      95.40000000      13.88000000
Au      79.08000000      95.40000000      15.92000000
Au      81.12000000      95.40000000      17.96000000
Au      79.08000000      95.40000000      20.00000000
Au      81.12000000      95.40000000      22.04000000
Au      79.08000000      95.40000000      24.08000000
Au      81.12000000      95.40000000      26.12000000
Au      79.08000000      95.40000000      28.16000000
Au      83.16000000      56.64000000      13.88000000
Au      83.16000000      54.60000000      15.92000000
Au      83.16000000      56.64000000      17.96000000
Au      85.20000000      54.60000000      17.96000000
Au      85.20000000      56.64000000      15.92000000
Au      83.16000000      54.60000000      20.00000000
Au      83.16000000      56.64000000      22.04000000
Au      85.20000000      54.60000000      22.04000000
Au      85.20000000      56.64000000      20.00000000
Au      83.16000000      54.60000000      24.08000000
Au      83.16000000      56.64000000      26.12000000
Au      85.20000000      56.64000000      24.08000000
Au      83.16000000      60.72000000       9.80000000
Au      83.16000000      58.68000000      11.84000000
Au      83.16000000      60.72000000      13.88000000
Au      85.20000000      58.68000000      13.88000000
Au      85.20000000      60.72000000      11.84000000
Au      83.16000000      58.68000000      15.92000000
Au      83.16000000      60.72000000      17.96000000
Au      85.20000000      58.68000000      17.96000000
Au      85.20000000      60.72000000      15.92000000
Au      83.16000000      58.68000000      20.00000000
Au      83.16000000      60.72000000      22.04000000
Au      85.20000000      58.68000000      22.04000000
Au      85.20000000      60.72000000      20.00000000
Au      83.16000000      58.68000000      24.08000000
Au      83.16000000      60.72000000      26.12000000
Au      85.20000000      58.68000000      26.12000000
Au      85.20000000      60.72000000      24.08000000
Au      83.16000000      58.68000000      28.16000000
Au      83.16000000      60.72000000      30.20000000
Au      85.20000000      60.72000000      28.16000000
Au      83.16000000      64.80000000       5.72000000
Au      83.16000000      62.76000000       7.76000000
Au      83.16000000      64.80000000       9.80000000
Au      85.20000000      62.76000000       9.80000000
Au      85.20000000      64.80000000       7.76000000
Au      83.16000000      62.76000000      11.84000000
Au      83.16000000      64.80000000      13.88000000
Au      85.20000000      62.76000000      13.88000000
Au      85.20000000      64.80000000      11.84000000
Au      83.16000000      62.76000000      15.92000000
Au      83.16000000      64.80000000      17.96000000
Au      85.20000000      62.76000000      17.96000000
Au      85.20000000      64.80000000      15.92000000
Au      83.16000000      62.76000000      20.00000000
Au      83.16000000      64.80000000      22.04000000
Au      85.20000000      62.76000000      22.04000000
Au      85.20000000      64.80000000      20.00000000
Au      83.16000000      62.76000000      24.08000000
Au      83.16000000      64.80000000      26.12000000
Au      85.20000000      62.76000000      26.12000000
Au      85.20000000      64.80000000      24.08000000
Au      83.16000000      62.76000000      28.16000000
Au      83.16000000      64.80000000      30.20000000
Au      85.20000000      62.76000000      30.20000000
Au      85.20000000      64.80000000      28.16000000
Au      83.16000000      62.76000000      32.24000000
Au      83.16000000      64.80000000      34.28000000
Au      85.20000000      64.80000000      32.24000000
Au      83.16000000      68.88000000       1.64000000
Au      83.16000000      66.84000000       3.68000000
Au      83.16000000      68.88000000       5.72000000
Au      85.20000000      66.84000000       5.72000000
Au      85.20000000      68.88000000       3.68000000
Au      83.16000000      66.84000000       7.76000000
Au      83.16000000      68.88000000       9.80000000
Au      85.20000000      66.84000000       9.80000000
Au      85.20000000      68.88000000       7.76000000
Au      83.16000000      66.84000000      11.84000000
Au      83.16000000      68.88000000      13.88000000
Au      85.20000000      66.84000000      13.88000000
Au      85.20000000      68.88000000      11.84000000
Au      83.16000000      66.84000000      15.92000000
Au      83.16000000      68.88000000      17.96000000
Au      85.20000000      66.84000000      17.96000000
Au      85.20000000      68.88000000      15.92000000
Au      83.16000000      66.84000000      20.00000000
Au      83.16000000      68.88000000      22.04000000
Au      85.20000000      66.84000000      22.04000000
Au      85.20000000      68.88000000      20.00000000
Au      83.16000000      66.84000000      24.08000000
Au      83.16000000      68.88000000      26.12000000
Au      85.20000000      66.84000000      26.12000000
Au      85.20000000      68.88000000      24.08000000
Au      83.16000000      66.84000000      28.16000000
Au      83.16000000      68.88000000      30.20000000
Au      85.20000000      66.84000000      30.20000000
Au      85.20000000      68.88000000      28.16000000
Au      83.16000000      66.84000000      32.24000000
Au      83.16000000      68.88000000      34.28000000
Au      85.20000000      66.84000000      34.28000000
Au      85.20000000      68.88000000      32.24000000
Au      83.16000000      66.84000000      36.32000000
Au      83.16000000      68.88000000      38.36000000
Au      85.20000000      68.88000000      36.32000000
Au      83.16000000      70.92000000      -0.40000000
Au      83.16000000      72.96000000       1.64000000
Au      85.20000000      70.92000000       1.64000000
Au      85.20000000      72.96000000      -0.40000000
Au      83.16000000      70.92000000       3.68000000
Au      83.16000000      72.96000000       5.72000000
Au      85.20000000      70.92000000       5.72000000
Au      85.20000000      72.96000000       3.68000000
Au      83.16000000      70.92000000       7.76000000
Au      83.16000000      72.96000000       9.80000000
Au      85.20000000      70.92000000       9.80000000
Au      85.20000000      72.96000000       7.76000000
Au      83.16000000      70.92000000      11.84000000
Au      83.16000000      72.96000000      13.88000000
Au      85.20000000      70.92000000      13.88000000
Au      85.20000000      72.96000000      11.84000000
Au      83.16000000      70.92000000      15.92000000
Au      83.16000000      72.96000000      17.96000000
Au      85.20000000      70.92000000      17.96000000
Au      85.20000000      72.96000000      15.92000000
Au      83.16000000      70.92000000      20.00000000
Au      83.16000000      72.96000000      22.04000000
Au      85.20000000      70.92000000      22.04000000
Au      85.20000000      72.96000000      20.00000000
Au      83.16000000      70.92000000      24.08000000
Au      83.16000000      72.96000000      26.12000000
Au      85.20000000      70.92000000      26.12000000
Au      85.20000000      72.96000000      24.08000000
Au      83.16000000      70.92000000      28.16000000
Au      83.16000000      72.96000000      30.20000000
Au      85.20000000      70.92000000      30.20000000
Au      85.20000000      72.96000000      28.16000000
Au      83.16000000      70.92000000      32.24000000
Au      83.16000000      72.96000000      34.28000000
Au      85.20000000      70.92000000      34.28000000
Au      85.20000000      72.96000000      32.24000000
Au      83.16000000      70.92000000      36.32000000
Au      83.16000000      72.96000000      38.36000000
Au      85.20000000      70.92000000      38.36000000
Au      85.20000000      72.96000000      36.32000000
Au      83.16000000      70.92000000      40.40000000
Au      85.20000000      72.96000000      40.40000000
Au      83.16000000      75.00000000      -0.40000000
Au      83.16000000      77.04000000       1.64000000
Au      85.20000000      75.00000000       1.64000000
Au      85.20000000      77.04000000      -0.40000000
Au      83.16000000      75.00000000       3.68000000
Au      83.16000000      77.04000000       5.72000000
Au      85.20000000      75.00000000       5.72000000
Au      85.20000000      77.04000000       3.68000000
Au      83.16000000      75.00000000       7.76000000
Au      83.16000000      77.04000000       9.80000000
Au      85.20000000      75.00000000       9.80000000
Au      85.20000000      77.04000000       7.76000000
Au      83.16000000      75.00000000      11.84000000
Au      83.16000000      77.04000000      13.88000000
Au      85.20000000      75.00000000      13.88000000
Au      85.20000000      77.04000000      11.84000000
Au      83.16000000      75.00000000      15.92000000
Au      83.16000000      77.04000000      17.96000000
Au      85.20000000      75.00000000      17.96000000
Au      85.20000000      77.04000000      15.92000000
Au      83.16000000      75.00000000      20.00000000
Au      83.16000000      77.04000000      22.04000000
Au      85.20000000      75.00000000      22.04000000
Au      85.20000000      77.04000000      20.00000000
Au      83.16000000      75.00000000      24.08000000
Au      83.16000000      77.04000000      26.12000000
Au      85.20000000      75.00000000      26.12000000
Au      85.20000000      77.04000000      24.08000000
Au      83.16000000      75.00000000      28.16000000
Au      83.16000000      77.04000000      30.20000000
Au      85.20000000      75.00000000      30.20000000
Au      85.20000000      77.04000000      28.16000000
Au      83.16000000      75.00000000      32.24000000
Au      83.16000000      77.04000000      34.28000000
Au      85.20000000      75.00000000      34.28000000
Au      85.20000000      77.04000000      32.24000000
Au      83.16000000      75.00000000      36.32000000
Au      83.16000000      77.04000000      38.36000000
Au      85.20000000      75.00000000      38.36000000
Au      85.20000000      77.04000000      36.32000000
Au      83.16000000      75.00000000      40.40000000
Au      85.20000000      77.04000000      40.40000000
Au      83.16000000      79.08000000      -0.40000000
Au      83.16000000      81.12000000       1.64000000
Au      85.20000000      79.08000000       1.64000000
Au      83.16000000      79.08000000       3.68000000
Au      83.16000000      81.12000000       5.72000000
Au      85.20000000      79.08000000       5.72000000
Au      85.20000000      81.12000000       3.68000000
Au      83.16000000      79.08000000       7.76000000
Au      83.16000000      81.12000000       9.80000000
Au      85.20000000      79.08000000       9.80000000
Au      85.20000000      81.12000000       7.76000000
Au      83.16000000      79.08000000      11.84000000
Au      83.16000000      81.12000000      13.88000000
Au      85.20000000      79.08000000      13.88000000
Au      85.20000000      81.12000000      11.84000000
Au      83.16000000      79.08000000      15.92000000
Au      83.16000000      81.12000000      17.96000000
Au      85.20000000      79.08000000      17.96000000
Au      85.20000000      81.12000000      15.92000000
Au      83.16000000      79.08000000      20.00000000
Au      83.16000000      81.12000000      22.04000000
Au      85.20000000      79.08000000      22.04000000
Au      85.20000000      81.12000000      20.00000000
Au      83.16000000      79.08000000      24.08000000
Au      83.16000000      81.12000000      26.12000000
Au      85.20000000      79.08000000      26.12000000
Au      85.20000000      81.12000000      24.08000000
Au      83.16000000      79.08000000      28.16000000
Au      83.16000000      81.12000000      30.20000000
Au      85.20000000      79.08000000      30.20000000
Au      85.20000000      81.12000000      28.16000000
Au      83.16000000      79.08000000      32.24000000
Au      83.16000000      81.12000000      34.28000000
Au      85.20000000      79.08000000      34.28000000
Au      85.20000000      81.12000000      32.24000000
Au      83.16000000      79.08000000      36.32000000
Au      83.16000000      81.12000000      38.36000000
Au      85.20000000      79.08000000      38.36000000
Au      85.20000000      81.12000000      36.32000000
Au      83.16000000      79.08000000      40.40000000
Au      83.16000000      83.16000000       3.68000000
Au      83.16000000      85.20000000       5.72000000
Au      85.20000000      83.16000000       5.72000000
Au      83.16000000      83.16000000       7.76000000
Au      83.16000000      85.20000000       9.80000000
Au      85.20000000      83.16000000       9.80000000
Au      85.20000000      85.20000000       7.76000000
Au      83.16000000      83.16000000      11.84000000
Au      83.16000000      85.20000000      13.88000000
Au      85.20000000      83.16000000      13.88000000
Au      85.20000000      85.20000000      11.84000000
Au      83.16000000      83.16000000      15.92000000
Au      83.16000000      85.20000000      17.96000000
Au      85.20000000      83.16000000      17.96000000
Au      85.20000000      85.20000000      15.92000000
Au      83.16000000      83.16000000      20.00000000
Au      83.16000000      85.20000000      22.04000000
Au      85.20000000      83.16000000      22.04000000
Au      85.20000000      85.20000000      20.00000000
Au      83.16000000      83.16000000      24.08000000
Au      83.16000000      85.20000000      26.12000000
Au      85.20000000      83.16000000      26.12000000
Au      85.20000000      85.20000000      24.08000000
Au      83.16000000      83.16000000      28.16000000
Au      83.16000000      85.20000000      30.20000000
Au      85.20000000      83.16000000      30.20000000
Au      85.20000000      85.20000000      28.16000000
Au      83.16000000      83.16000000      32.24000000
Au      83.16000000      85.20000000      34.28000000
Au      85.20000000      83.16000000      34.28000000
Au      85.20000000      85.20000000      32.24000000
Au      83.16000000      83.16000000      36.32000000
Au      83.16000000      87.24000000       7.76000000
Au      83.16000000      89.28000000       9.80000000
Au      85.20000000      87.24000000       9.80000000
Au      83.16000000      87.24000000      11.84000000
Au      83.16000000      89.28000000      13.88000000
Au      85.20000000      87.24000000      13.88000000
Au      85.20000000      89.28000000      11.84000000
Au      83.16000000      87.24000000      15.92000000
Au      83.16000000      89.28000000      17.96000000
Au      85.20000000      87.24000000      17.96000000
Au      85.20000000      89.28000000      15.92000000
Au      83.16000000      87.24000000      20.00000000
Au      83.16000000      89.28000000      22.04000000
Au      85.20000000      87.24000000      22.04000000
Au      85.20000000      89.28000000      20.00000000
Au      83.16000000      87.24000000      24.08000000
Au      83.16000000      89.28000000      26.12000000
Au      85.20000000      87.24000000      26.12000000
Au      85.20000000      89.28000000      24.08000000
Au      83.16000000      87.24000000      28.16000000
Au      83.16000000      89.28000000      30.20000000
Au      85.20000000      87.24000000      30.20000000
Au      85.20000000      89.28000000      28.16000000
Au      83.16000000      87.24000000      32.24000000
Au      83.16000000      91.32000000      11.84000000
Au      83.16000000      93.36000000      13.88000000
Au      85.20000000      91.32000000      13.88000000
Au      83.16000000      91.32000000      15.92000000
Au      83.16000000      93.36000000      17.96000000
Au      85.20000000      91.32000000      17.96000000
Au      85.20000000      93.36000000      15.92000000
Au      83.16000000      91.32000000      20.00000000
Au      83.16000000      93.36000000      22.04000000
Au      85.20000000      91.32000000      22.04000000
Au      85.20000000      93.36000000      20.00000000
Au      83.16000000      91.32000000      24.08000000
Au      83.16000000      93.36000000      26.12000000
Au      85.20000000      91.32000000      26.12000000
Au      85.20000000      93.36000000      24.08000000
Au      83.16000000      91.32000000      28.16000000
Au      83.16000000      95.40000000      15.92000000
Au      85.20000000      95.40000000      17.96000000
Au      83.16000000      95.40000000      20.00000000
Au      85.20000000      95.40000000      22.04000000
Au      83.16000000      95.40000000      24.08000000
Au      87.24000000      56.64000000      17.96000000
Au      87.24000000      56.64000000      22.04000000
Au      87.24000000      60.72000000      13.88000000
Au      87.24000000      58.68000000      15.92000000
Au      87.24000000      60.72000000      17.96000000
Au      89.28000000      58.68000000      17.96000000
Au      89.28000000      60.72000000      15.92000000
Au      87.24000000      58.68000000      20.00000000
Au      87.24000000      60.72000000      22.04000000
Au      89.28000000      58.68000000      22.04000000
Au      89.28000000      60.72000000      20.00000000
Au      87.24000000      58.68000000      24.08000000
Au      87.24000000      60.72000000      26.12000000
Au      89.28000000      60.72000000      24.08000000
Au      87.24000000      64.80000000       9.80000000
Au      87.24000000      62.76000000      11.84000000
Au      87.24000000      64.80000000      13.88000000
Au      89.28000000      62.76000000      13.88000000
Au      89.28000000      64.80000000      11.84000000
Au      87.24000000      62.76000000      15.92000000
Au      87.24000000      64.80000000      17.96000000
Au      89.28000000      62.76000000      17.96000000
Au      89.28000000      64.80000000      15.92000000
Au      87.24000000      62.76000000      20.00000000
Au      87.24000000      64.80000000      22.04000000
Au      89.28000000      62.76000000      22.04000000
Au      89.28000000      64.80000000      20.00000000
Au      87.24000000      62.76000000      24.08000000
Au      87.24000000      64.80000000      26.12000000
Au      89.28000000      62.76000000      26.12000000
Au      89.28000000      64.80000000      24.08000000
Au      87.24000000      62.76000000      28.16000000
Au      87.24000000      64.80000000      30.20000000
Au      89.28000000      64.80000000      28.16000000
Au      87.24000000      68.88000000       5.72000000
Au      87.24000000      66.84000000       7.76000000
Au      87.24000000      68.88000000       9.80000000
Au      89.28000000      66.84000000       9.80000000
Au      89.28000000      68.88000000       7.76000000
Au      87.24000000      66.84000000      11.84000000
Au      87.24000000      68.88000000      13.88000000
Au      89.28000000      66.84000000      13.88000000
Au      89.28000000      68.88000000      11.84000000
Au      87.24000000      66.84000000      15.92000000
Au      87.24000000      68.88000000      17.96000000
Au      89.28000000      66.84000000      17.96000000
Au      89.28000000      68.88000000      15.92000000
Au      87.24000000      66.84000000      20.00000000
Au      87.24000000      68.88000000      22.04000000
Au      89.28000000      66.84000000      22.04000000
Au      89.28000000      68.88000000      20.00000000
Au      87.24000000      66.84000000      24.08000000
Au      87.24000000      68.88000000      26.12000000
Au      89.28000000      66.84000000      26.12000000
Au      89.28000000      68.88000000      24.08000000
Au      87.24000000      66.84000000      28.16000000
Au      87.24000000      68.88000000      30.20000000
Au      89.28000000      66.84000000      30.20000000
Au      89.28000000      68.88000000      28.16000000
Au      87.24000000      66.84000000      32.24000000
Au      87.24000000      68.88000000      34.28000000
Au      89.28000000      68.88000000      32.24000000
Au      87.24000000      72.96000000       1.64000000
Au      87.24000000      70.92000000       3.68000000
Au      87.24000000      72.96000000       5.72000000
Au      89.28000000      70.92000000       5.72000000
Au      89.28000000      72.96000000       3.68000000
Au      87.24000000      70.92000000       7.76000000
Au      87.24000000      72.96000000       9.80000000
Au      89.28000000      70.92000000       9.80000000
Au      89.28000000      72.96000000       7.76000000
Au      87.24000000      70.92000000      11.84000000
Au      87.24000000      72.96000000      13.88000000
Au      89.28000000      70.92000000      13.88000000
Au      89.28000000      72.96000000      11.84000000
Au      87.24000000      70.92000000      15.92000000
Au      87.24000000      72.96000000      17.96000000
Au      89.28000000      70.92000000      17.96000000
Au      89.28000000      72.96000000      15.92000000
Au      87.24000000      70.92000000      20.00000000
Au      87.24000000      72.96000000      22.04000000
Au      89.28000000      70.92000000      22.04000000
Au      89.28000000      72.96000000      20.00000000
Au      87.24000000      70.92000000      24.08000000
Au      87.24000000      72.96000000      26.12000000
Au      89.28000000      70.92000000      26.12000000
Au      89.28000000      72.96000000      24.08000000
Au      87.24000000      70.92000000      28.16000000
Au      87.24000000      72.96000000      30.20000000
Au      89.28000000      70.92000000      30.20000000
Au      89.28000000      72.96000000      28.16000000
Au      87.24000000      70.92000000      32.24000000
Au      87.24000000      72.96000000      34.28000000
Au      89.28000000      70.92000000      34.28000000
Au      89.28000000      72.96000000      32.24000000
Au      87.24000000      70.92000000      36.32000000
Au      87.24000000      72.96000000      38.36000000
Au      89.28000000      72.96000000      36.32000000
Au      87.24000000      77.04000000       1.64000000
Au      87.24000000      75.00000000       3.68000000
Au      87.24000000      77.04000000       5.72000000
Au      89.28000000      75.00000000       5.72000000
Au      89.28000000      77.04000000       3.68000000
Au      87.24000000      75.00000000       7.76000000
Au      87.24000000      77.04000000       9.80000000
Au      89.28000000      75.00000000       9.80000000
Au      89.28000000      77.04000000       7.76000000
Au      87.24000000      75.00000000      11.84000000
Au      87.24000000      77.04000000      13.88000000
Au      89.28000000      75.00000000      13.88000000
Au      89.28000000      77.04000000      11.84000000
Au      87.24000000      75.00000000      15.92000000
Au      87.24000000      77.04000000      17.96000000
Au      89.28000000      75.00000000      17.96000000
Au      89.28000000      77.04000000      15.92000000
Au      87.24000000      75.00000000      20.00000000
Au      87.24000000      77.04000000      22.04000000
Au      89.28000000      75.00000000      22.04000000
Au      89.28000000      77.04000000      20.00000000
Au      87.24000000      75.00000000      24.08000000
Au      87.24000000      77.04000000      26.12000000
Au      89.28000000      75.00000000      26.12000000
Au      89.28000000      77.04000000      24.08000000
Au      87.24000000      75.00000000      28.16000000
Au      87.24000000      77.04000000      30.20000000
Au      89.28000000      75.00000000      30.20000000
Au      89.28000000      77.04000000      28.16000000
Au      87.24000000      75.00000000      32.24000000
Au      87.24000000      77.04000000      34.28000000
Au      89.28000000      75.00000000      34.28000000
Au      89.28000000      77.04000000      32.24000000
Au      87.24000000      75.00000000      36.32000000
Au      87.24000000      77.04000000      38.36000000
Au      89.28000000      77.04000000      36.32000000
Au      87.24000000      79.08000000       3.68000000
Au      87.24000000      81.12000000       5.72000000
Au      89.28000000      79.08000000       5.72000000
Au      87.24000000      79.08000000       7.76000000
Au      87.24000000      81.12000000       9.80000000
Au      89.28000000      79.08000000       9.80000000
Au      89.28000000      81.12000000       7.76000000
Au      87.24000000      79.08000000      11.84000000
Au      87.24000000      81.12000000      13.88000000
Au      89.28000000      79.08000000      13.88000000
Au      89.28000000      81.12000000      11.84000000
Au      87.24000000      79.08000000      15.92000000
Au      87.24000000      81.12000000      17.96000000
Au      89.28000000      79.08000000      17.96000000
Au      89.28000000      81.12000000      15.92000000
Au      87.24000000      79.08000000      20.00000000
Au      87.24000000      81.12000000      22.04000000
Au      89.28000000      79.08000000      22.04000000
Au      89.28000000      81.12000000      20.00000000
Au      87.24000000      79.08000000      24.08000000
Au      87.24000000      81.12000000      26.12000000
Au      89.28000000      79.08000000      26.12000000
Au      89.28000000      81.12000000      24.08000000
Au      87.24000000      79.08000000      28.16000000
Au      87.24000000      81.12000000      30.20000000
Au      89.28000000      79.08000000      30.20000000
Au      89.28000000      81.12000000      28.16000000
Au      87.24000000      79.08000000      32.24000000
Au      87.24000000      81.12000000      34.28000000
Au      89.28000000      79.08000000      34.28000000
Au      89.28000000      81.12000000      32.24000000
Au      87.24000000      79.08000000      36.32000000
Au      87.24000000      83.16000000       7.76000000
Au      87.24000000      85.20000000       9.80000000
Au      89.28000000      83.16000000       9.80000000
Au      87.24000000      83.16000000      11.84000000
Au      87.24000000      85.20000000      13.88000000
Au      89.28000000      83.16000000      13.88000000
Au      89.28000000      85.20000000      11.84000000
Au      87.24000000      83.16000000      15.92000000
Au      87.24000000      85.20000000      17.96000000
Au      89.28000000      83.16000000      17.96000000
Au      89.28000000      85.20000000      15.92000000
Au      87.24000000      83.16000000      20.00000000
Au      87.24000000      85.20000000      22.04000000
Au      89.28000000      83.16000000      22.04000000
Au      89.28000000      85.20000000      20.00000000
Au      87.24000000      83.16000000      24.08000000
Au      87.24000000      85.20000000      26.12000000
Au      89.28000000      83.16000000      26.12000000
Au      89.28000000      85.20000000      24.08000000
Au      87.24000000      83.16000000      28.16000000
Au      87.24000000      85.20000000      30.20000000
Au      89.28000000      83.16000000      30.20000000
Au      89.28000000      85.20000000      28.16000000
Au      87.24000000      83.16000000      32.24000000
Au      87.24000000      87.24000000      11.84000000
Au      87.24000000      89.28000000      13.88000000
Au      89.28000000      87.24000000      13.88000000
Au      87.24000000      87.24000000      15.92000000
Au      87.24000000      89.28000000      17.96000000
Au      89.28000000      87.24000000      17.96000000
Au      89.28000000      89.28000000      15.92000000
Au      87.24000000      87.24000000      20.00000000
Au      87.24000000      89.28000000      22.04000000
Au      89.28000000      87.24000000      22.04000000
Au      89.28000000      89.28000000      20.00000000
Au      87.24000000      87.24000000      24.08000000
Au      87.24000000      89.28000000      26.12000000
Au      89.28000000      87.24000000      26.12000000
Au      89.28000000      89.28000000      24.08000000
Au      87.24000000      87.24000000      28.16000000
Au      87.24000000      91.32000000      15.92000000
Au      87.24000000      93.36000000      17.96000000
Au      89.28000000      91.32000000      17.96000000
Au      87.24000000      91.32000000      20.00000000
Au      87.24000000      93.36000000      22.04000000
Au      89.28000000      91.32000000      22.04000000
Au      87.24000000      91.32000000      24.08000000
Au      91.32000000      60.72000000      17.96000000
Au      91.32000000      60.72000000      22.04000000
Au      91.32000000      64.80000000      13.88000000
Au      91.32000000      62.76000000      15.92000000
Au      91.32000000      64.80000000      17.96000000
Au      93.36000000      62.76000000      17.96000000
Au      93.36000000      64.80000000      15.92000000
Au      91.32000000      62.76000000      20.00000000
Au      91.32000000      64.80000000      22.04000000
Au      93.36000000      62.76000000      22.04000000
Au      93.36000000      64.80000000      20.00000000
Au      91.32000000      62.76000000      24.08000000
Au      91.32000000      64.80000000      26.12000000
Au      93.36000000      64.80000000      24.08000000
Au      91.32000000      68.88000000       9.80000000
Au      91.32000000      66.84000000      11.84000000
Au      91.32000000      68.88000000      13.88000000
Au      93.36000000      66.84000000      13.88000000
Au      93.36000000      68.88000000      11.84000000
Au      91.32000000      66.84000000      15.92000000
Au      91.32000000      68.88000000      17.96000000
Au      93.36000000      66.84000000      17.96000000
Au      93.36000000      68.88000000      15.92000000
Au      91.32000000      66.84000000      20.00000000
Au      91.32000000      68.88000000      22.04000000
Au      93.36000000      66.84000000      22.04000000
Au      93.36000000      68.88000000      20.00000000
Au      91.32000000      66.84000000      24.08000000
Au      91.32000000      68.88000000      26.12000000
Au      93.36000000      66.84000000      26.12000000
Au      93.36000000      68.88000000      24.08000000
Au      91.32000000      66.84000000      28.16000000
Au      91.32000000      68.88000000      30.20000000
Au      93.36000000      68.88000000      28.16000000
Au      91.32000000      72.96000000       5.72000000
Au      91.32000000      70.92000000       7.76000000
Au      91.32000000      72.96000000       9.80000000
Au      93.36000000      70.92000000       9.80000000
Au      93.36000000      72.96000000       7.76000000
Au      91.32000000      70.92000000      11.84000000
Au      91.32000000      72.96000000      13.88000000
Au      93.36000000      70.92000000      13.88000000
Au      93.36000000      72.96000000      11.84000000
Au      91.32000000      70.92000000      15.92000000
Au      91.32000000      72.96000000      17.96000000
Au      93.36000000      70.92000000      17.96000000
Au      93.36000000      72.96000000      15.92000000
Au      91.32000000      70.92000000      20.00000000
Au      91.32000000      72.96000000      22.04000000
Au      93.36000000      70.92000000      22.04000000
Au      93.36000000      72.96000000      20.00000000
Au      91.32000000      70.92000000      24.08000000
Au      91.32000000      72.96000000      26.12000000
Au      93.36000000      70.92000000      26.12000000
Au      93.36000000      72.96000000      24.08000000
Au      91.32000000      70.92000000      28.16000000
Au      91.32000000      72.96000000      30.20000000
Au      93.36000000      70.92000000      30.20000000
Au      93.36000000      72.96000000      28.16000000
Au      91.32000000      70.92000000      32.24000000
Au      91.32000000      72.96000000      34.28000000
Au      93.36000000      72.96000000      32.24000000
Au      91.32000000      77.04000000       5.72000000
Au      91.32000000      75.00000000       7.76000000
Au      91.32000000      77.04000000       9.80000000
Au      93.36000000      75.00000000       9.80000000
Au      93.36000000      77.04000000       7.76000000
Au      91.32000000      75.00000000      11.84000000
Au      91.32000000      77.04000000      13.88000000
Au      93.36000000      75.00000000      13.88000000
Au      93.36000000      77.04000000      11.84000000
Au      91.32000000      75.00000000      15.92000000
Au      91.32000000      77.04000000      17.96000000
Au      93.36000000      75.00000000      17.96000000
Au      93.36000000      77.04000000      15.92000000
Au      91.32000000      75.00000000      20.00000000
Au      91.32000000      77.04000000      22.04000000
Au      93.36000000      75.00000000      22.04000000
Au      93.36000000      77.04000000      20.00000000
Au      91.32000000      75.00000000      24.08000000
Au      91.32000000      77.04000000      26.12000000
Au      93.36000000      75.00000000      26.12000000
Au      93.36000000      77.04000000      24.08000000
Au      91.32000000      75.00000000      28.16000000
Au      91.32000000      77.04000000      30.20000000
Au      93.36000000      75.00000000      30.20000000
Au      93.36000000      77.04000000      28.16000000
Au      91.32000000      75.00000000      32.24000000
Au      91.32000000      77.04000000      34.28000000
Au      93.36000000      77.04000000      32.24000000
Au      91.32000000      79.08000000       7.76000000
Au      91.32000000      81.12000000       9.80000000
Au      93.36000000      79.08000000       9.80000000
Au      91.32000000      79.08000000      11.84000000
Au      91.32000000      81.12000000      13.88000000
Au      93.36000000      79.08000000      13.88000000
Au      93.36000000      81.12000000      11.84000000
Au      91.32000000      79.08000000      15.92000000
Au      91.32000000      81.12000000      17.96000000
Au      93.36000000      79.08000000      17.96000000
Au      93.36000000      81.12000000      15.92000000
Au      91.32000000      79.08000000      20.00000000
Au      91.32000000      81.12000000      22.04000000
Au      93.36000000      79.08000000      22.04000000
Au      93.36000000      81.12000000      20.00000000
Au      91.32000000      79.08000000      24.08000000
Au      91.32000000      81.12000000      26.12000000
Au      93.36000000      79.08000000      26.12000000
Au      93.36000000      81.12000000      24.08000000
Au      91.32000000      79.08000000      28.16000000
Au      91.32000000      81.12000000      30.20000000
Au      93.36000000      79.08000000      30.20000000
Au      93.36000000      81.12000000      28.16000000
Au      91.32000000      79.08000000      32.24000000
Au      91.32000000      83.16000000      11.84000000
Au      91.32000000      85.20000000      13.88000000
Au      93.36000000      83.16000000      13.88000000
Au      91.32000000      83.16000000      15.92000000
Au      91.32000000      85.20000000      17.96000000
Au      93.36000000      83.16000000      17.96000000
Au      93.36000000      85.20000000      15.92000000
Au      91.32000000      83.16000000      20.00000000
Au      91.32000000      85.20000000      22.04000000
Au      93.36000000      83.16000000      22.04000000
Au      93.36000000      85.20000000      20.00000000
Au      91.32000000      83.16000000      24.08000000
Au      91.32000000      85.20000000      26.12000000
Au      93.36000000      83.16000000      26.12000000
Au      93.36000000      85.20000000      24.08000000
Au      91.32000000      83.16000000      28.16000000
Au      91.32000000      87.24000000      15.92000000
Au      91.32000000      89.28000000      17.96000000
Au      93.36000000      87.24000000      17.96000000
Au      91.32000000      87.24000000      20.00000000
Au      91.32000000      89.28000000      22.04000000
Au      93.36000000      87.24000000      22.04000000
Au      91.32000000      87.24000000      24.08000000
Au      95.40000000      64.80000000      17.96000000
Au      95.40000000      64.80000000      22.04000000
Au      95.40000000      68.88000000      13.88000000
Au      95.40000000      66.84000000      15.92000000
Au      95.40000000      68.88000000      17.96000000
Au      95.40000000      66.84000000      20.00000000
Au      95.40000000      68.88000000      22.04000000
Au      95.40000000      66.84000000      24.08000000
Au      95.40000000      68.88000000      26.12000000
Au      95.40000000      72.96000000       9.80000000
Au      95.40000000      70.92000000      11.84000000
Au      95.40000000      72.96000000      13.88000000
Au      95.40000000      70.92000000      15.92000000
Au      95.40000000      72.96000000      17.96000000
Au      95.40000000      70.92000000      20.00000000
Au      95.40000000      72.96000000      22.04000000
Au      95.40000000      70.92000000      24.08000000
Au      95.40000000      72.96000000      26.12000000
Au      95.40000000      70.92000000      28.16000000
Au      95.40000000      72.96000000      30.20000000
Au      95.40000000      77.04000000       9.80000000
Au      95.40000000      75.00000000      11.84000000
Au      95.40000000      77.04000000      13.88000000
Au      95.40000000      75.00000000      15.92000000
Au      95.40000000      77.04000000      17.96000000
Au      95.40000000      75.00000000      20.00000000
Au      95.40000000      77.04000000      22.04000000
Au      95.40000000      75.00000000      24.08000000
Au      95.40000000      77.04000000      26.12000000
Au      95.40000000      75.00000000      28.16000000
Au      95.40000000      77.04000000      30.20000000
Au      95.40000000      79.08000000      11.84000000
Au      95.40000000      81.12000000      13.88000000
Au      95.40000000      79.08000000      15.92000000
Au      95.40000000      81.12000000      17.96000000
Au      95.40000000      79.08000000      20.00000000
Au      95.40000000      81.12000000      22.04000000
Au      95.40000000      79.08000000      24.08000000
Au      95.40000000      81.12000000      26.12000000
Au      95.40000000      79.08000000      28.16000000
Au      95.40000000      83.16000000      15.92000000
Au      95.40000000      85.20000000      17.96000000
Au      95.40000000      83.16000000      20.00000000
Au      95.40000000      85.20000000      22.04000000
Au      95.40000000      83.16000000      24.08000000
Au      60.31984906      18.47984906      34.13353459
Au      62.67543816      20.83543816      36.48912369
Au      65.03102725      23.19102725      38.84471279
Au      56.67095178      20.95095178      31.77794549
Au      58.71095178      18.91095178      31.77794549
Au      57.10205451      19.34205451      29.42235639
Au      58.27984906      20.51984906      34.13353459
Au      59.02654088      23.30654088      34.13353459
Au      61.06654088      21.26654088      34.13353459
Au      59.45764361      21.69764361      31.77794549
Au      60.63543816      22.87543816      36.48912369
Au      61.38212998      25.66212998      36.48912369
Au      63.42212998      23.62212998      36.48912369
Au      61.81323271      24.05323271      34.13353459
Au      62.99102725      25.23102725      38.84471279
Au      63.73771908      28.01771908      38.84471279
Au      65.77771908      25.97771908      38.84471279
Au      64.16882180      26.40882180      36.48912369
Au      66.52441090      28.76441090      38.84471279
Au      55.49315723      19.77315723      27.06676729
Au      55.06205451      21.38205451      29.42235639
Au      55.80874633      24.16874633      29.42235639
Au      57.84874633      22.12874633      29.42235639
Au      56.23984906      22.55984906      27.06676729
Au      57.41764361      23.73764361      31.77794549
Au      58.16433543      26.52433543      31.77794549
Au      60.20433543      24.48433543      31.77794549
Au      58.59543816      24.91543816      29.42235639
Au      59.77323271      26.09323271      34.13353459
Au      60.51992453      28.87992453      34.13353459
Au      62.55992453      26.83992453      34.13353459
Au      60.95102725      27.27102725      31.77794549
Au      62.12882180      28.44882180      36.48912369
Au      62.87551363      31.23551363      36.48912369
Au      64.91551363      29.19551363      36.48912369
Au      63.30661635      29.62661635      34.13353459
Au      64.48441090      30.80441090      38.84471279
Au      67.27110273      31.55110273      38.84471279
Au      65.66220545      31.98220545      36.48912369
Au      54.63095178      22.99095178      24.71117820
Au      54.19984906      24.59984906      27.06676729
Au      54.94654088      27.38654088      27.06676729
Au      56.98654088      25.34654088      27.06676729
Au      55.37764361      25.77764361      24.71117820
Au      56.55543816      26.95543816      29.42235639
Au      57.30212998      29.74212998      29.42235639
Au      59.34212998      27.70212998      29.42235639
Au      57.73323271      28.13323271      27.06676729
Au      58.91102725      29.31102725      31.77794549
Au      59.65771908      32.09771908      31.77794549
Au      61.69771908      30.05771908      31.77794549
Au      60.08882180      30.48882180      29.42235639
Au      61.26661635      31.66661635      34.13353459
Au      62.01330818      34.45330818      34.13353459
Au      64.05330818      32.41330818      34.13353459
Au      62.44441090      32.84441090      31.77794549
Au      63.62220545      34.02220545      36.48912369
Au      66.40889727      34.76889727      36.48912369
Au      64.80000000      35.20000000      34.13353459
Au      53.76874633      26.20874633      22.35558910
Au      53.33764361      27.81764361      24.71117820
Au      54.08433543      30.60433543      24.71117820
Au      56.12433543      28.56433543      24.71117820
Au      54.51543816      28.99543816      22.35558910
Au      55.69323271      30.17323271      27.06676729
Au      56.43992453      32.95992453      27.06676729
Au      58.47992453      30.91992453      27.06676729
Au      56.87102725      31.35102725      24.71117820
Au      58.04882180      32.52882180      29.42235639
Au      58.79551363      35.31551363      29.42235639
Au      60.83551363      33.27551363      29.42235639
Au      59.22661635      33.70661635      27.06676729
Au      60.40441090      34.88441090      31.77794549
Au      61.15110273      37.67110273      31.77794549
Au      63.19110273      35.63110273      31.77794549
Au      61.58220545      36.06220545      29.42235639
Au      62.76000000      37.24000000      34.13353459
Au      65.54669182      37.98669182      34.13353459
Au      63.93779455      38.41779455      31.77794549
Au      55.26212998      31.78212998      22.35558910
Au      54.83102725      33.39102725      24.71117820
Au      57.61771908      34.13771908      24.71117820
Au      56.00882180      34.56882180      22.35558910
Au      57.18661635      35.74661635      27.06676729
Au      59.97330818      36.49330818      27.06676729
Au      58.36441090      36.92441090      24.71117820
Au      59.54220545      38.10220545      29.42235639
Au      62.32889727      38.84889727      29.42235639
Au      60.72000000      39.28000000      27.06676729
Au      64.39984906      14.39984906      34.13353459
Au      66.75543816      16.75543816      36.48912369
Au      69.11102725      19.11102725      38.84471279
Au      60.75095178      16.87095178      31.77794549
Au      62.79095178      14.83095178      31.77794549
Au      61.18205451      15.26205451      29.42235639
Au      62.35984906      16.43984906      34.13353459
Au      63.10654088      19.22654088      34.13353459
Au      65.14654088      17.18654088      34.13353459
Au      63.53764361      17.61764361      31.77794549
Au      64.71543816      18.79543816      36.48912369
Au      65.46212998      21.58212998      36.48912369
Au      67.50212998      19.54212998      36.48912369
Au      65.89323271      19.97323271      34.13353459
Au      67.07102725      21.15102725      38.84471279
Au      67.81771908      23.93771908      38.84471279
Au      69.85771908      21.89771908      38.84471279
Au      68.24882180      22.32882180      36.48912369
Au      70.60441090      24.68441090      38.84471279
Au      57.53315723      17.73315723      27.06676729
Au      59.57315723      15.69315723      27.06676729
Au      57.96425996      16.12425996      24.71117820
Au      59.14205451      17.30205451      29.42235639
Au      59.88874633      20.08874633      29.42235639
Au      61.92874633      18.04874633      29.42235639
Au      60.31984906      18.47984906      27.06676729
Au      61.49764361      19.65764361      31.77794549
Au      62.24433543      22.44433543      31.77794549
Au      64.28433543      20.40433543      31.77794549
Au      62.67543816      20.83543816      29.42235639
Au      63.85323271      22.01323271      34.13353459
Au      64.59992453      24.79992453      34.13353459
Au      66.63992453      22.75992453      34.13353459
Au      65.03102725      23.19102725      31.77794549
Au      66.20882180      24.36882180      36.48912369
Au      66.95551363      27.15551363      36.48912369
Au      68.99551363      25.11551363      36.48912369
Au      67.38661635      25.54661635      34.13353459
Au      68.56441090      26.72441090      38.84471279
Au      69.31110273      29.51110273      38.84471279
Au      71.35110273      27.47110273      38.84471279
Au      69.74220545      27.90220545      36.48912369
Au      72.09779455      30.25779455      38.84471279
Au      56.35536268      16.55536268      22.35558910
Au      55.92425996      18.16425996      24.71117820
Au      56.67095178      20.95095178      24.71117820
Au      58.71095178      18.91095178      24.71117820
Au      57.10205451      19.34205451      22.35558910
Au      58.27984906      20.51984906      27.06676729
Au      59.02654088      23.30654088      27.06676729
Au      61.06654088      21.26654088      27.06676729
Au      59.45764361      21.69764361      24.71117820
Au      60.63543816      22.87543816      29.42235639
Au      61.38212998      25.66212998      29.42235639
Au      63.42212998      23.62212998      29.42235639
Au      61.81323271      24.05323271      27.06676729
Au      62.99102725      25.23102725      31.77794549
Au      63.73771908      28.01771908      31.77794549
Au      65.77771908      25.97771908      31.77794549
Au      64.16882180      26.40882180      29.42235639
Au      65.34661635      27.58661635      34.13353459
Au      66.09330818      30.37330818      34.13353459
Au      68.13330818      28.33330818      34.13353459
Au      66.52441090      28.76441090      31.77794549
Au      67.70220545      29.94220545      36.48912369
Au      68.44889727      32.72889727      36.48912369
Au      70.48889727      30.68889727      36.48912369
Au      68.88000000      31.12000000      34.13353459
Au      70.05779455      32.29779455      38.84471279
Au      72.84448637      33.04448637      38.84471279
Au      71.23558910      33.47558910      36.48912369
Au      55.49315723      19.77315723      20.00000000
Au      55.06205451      21.38205451      22.35558910
Au      55.80874633      24.16874633      22.35558910
Au      57.84874633      22.12874633      22.35558910
Au      56.23984906      22.55984906      20.00000000
Au      57.41764361      23.73764361      24.71117820
Au      58.16433543      26.52433543      24.71117820
Au      60.20433543      24.48433543      24.71117820
Au      58.59543816      24.91543816      22.35558910
Au      59.77323271      26.09323271      27.06676729
Au      60.51992453      28.87992453      27.06676729
Au      62.55992453      26.83992453      27.06676729
Au      60.95102725      27.27102725      24.71117820
Au      62.12882180      28.44882180      29.42235639
Au      62.87551363      31.23551363      29.42235639
Au      64.91551363      29.19551363      29.42235639
Au      63.30661635      29.62661635      27.06676729
Au      64.48441090      30.80441090      31.77794549
Au      65.23110273      33.59110273      31.77794549
Au      67.27110273      31.55110273      31.77794549
Au      65.66220545      31.98220545      29.42235639
Au      66.84000000      33.16000000      34.13353459
Au      67.58669182      35.94669182      34.13353459
Au      69.62669182      33.90669182      34.13353459
Au      68.01779455      34.33779455      31.77794549
Au      69.19558910      35.51558910      36.48912369
Au      71.98228092      36.26228092      36.48912369
Au      70.37338365      36.69338365      34.13353459
Au      54.63095178      22.99095178      17.64441090
Au      54.19984906      24.59984906      20.00000000
Au      54.94654088      27.38654088      20.00000000
Au      56.98654088      25.34654088      20.00000000
Au      55.37764361      25.77764361      17.64441090
Au      56.55543816      26.95543816      22.35558910
Au      57.30212998      29.74212998      22.35558910
Au      59.34212998      27.70212998      22.35558910
Au      57.73323271      28.13323271      20.00000000
Au      58.91102725      29.31102725      24.71117820
Au      59.65771908      32.09771908      24.71117820
Au      61.69771908      30.05771908      24.71117820
Au      60.08882180      30.48882180      22.35558910
Au      61.26661635      31.66661635      27.06676729
Au      62.01330818      34.45330818      27.06676729
Au      64.05330818      32.41330818      27.06676729
Au      62.44441090      32.84441090      24.71117820
Au      63.62220545      34.02220545      29.42235639
Au      64.36889727      36.80889727      29.42235639
Au      66.40889727      34.76889727      29.42235639
Au      64.80000000      35.20000000      27.06676729
Au      65.97779455      36.37779455      31.77794549
Au      66.72448637      39.16448637      31.77794549
Au      68.76448637      37.12448637      31.77794549
Au      67.15558910      37.55558910      29.42235639
Au      68.33338365      38.73338365      34.13353459
Au      71.12007547      39.48007547      34.13353459
Au      69.51117820      39.91117820      31.77794549
Au      56.12433543      28.56433543      17.64441090
Au      55.69323271      30.17323271      20.00000000
Au      56.43992453      32.95992453      20.00000000
Au      58.47992453      30.91992453      20.00000000
Au      56.87102725      31.35102725      17.64441090
Au      58.04882180      32.52882180      22.35558910
Au      58.79551363      35.31551363      22.35558910
Au      60.83551363      33.27551363      22.35558910
Au      59.22661635      33.70661635      20.00000000
Au      60.40441090      34.88441090      24.71117820
Au      61.15110273      37.67110273      24.71117820
Au      63.19110273      35.63110273      24.71117820
Au      61.58220545      36.06220545      22.35558910
Au      62.76000000      37.24000000      27.06676729
Au      63.50669182      40.02669182      27.06676729
Au      65.54669182      37.98669182      27.06676729
Au      63.93779455      38.41779455      24.71117820
Au      65.11558910      39.59558910      29.42235639
Au      67.90228092      40.34228092      29.42235639
Au      66.29338365      40.77338365      27.06676729
Au      57.61771908      34.13771908      17.64441090
Au      57.18661635      35.74661635      20.00000000
Au      59.97330818      36.49330818      20.00000000
Au      58.36441090      36.92441090      17.64441090
Au      59.54220545      38.10220545      22.35558910
Au      62.32889727      38.84889727      22.35558910
Au      60.72000000      39.28000000      20.00000000
Au      61.89779455      40.45779455      24.71117820
Au      64.68448637      41.20448637      24.71117820
Au      63.07558910      41.63558910      22.35558910
Au      68.47984906      10.31984906      34.13353459
Au      70.83543816      12.67543816      36.48912369
Au      73.19102725      15.03102725      38.84471279
Au      64.83095178      12.79095178      31.77794549
Au      66.87095178      10.75095178      31.77794549
Au      65.26205451      11.18205451      29.42235639
Au      66.43984906      12.35984906      34.13353459
Au      67.18654088      15.14654088      34.13353459
Au      69.22654088      13.10654088      34.13353459
Au      67.61764361      13.53764361      31.77794549
Au      68.79543816      14.71543816      36.48912369
Au      69.54212998      17.50212998      36.48912369
Au      71.58212998      15.46212998      36.48912369
Au      69.97323271      15.89323271      34.13353459
Au      71.15102725      17.07102725      38.84471279
Au      71.89771908      19.85771908      38.84471279
Au      73.93771908      17.81771908      38.84471279
Au      72.32882180      18.24882180      36.48912369
Au      74.68441090      20.60441090      38.84471279
Au      61.61315723      13.65315723      27.06676729
Au      63.65315723      11.61315723      27.06676729
Au      62.04425996      12.04425996      24.71117820
Au      63.22205451      13.22205451      29.42235639
Au      63.96874633      16.00874633      29.42235639
Au      66.00874633      13.96874633      29.42235639
Au      64.39984906      14.39984906      27.06676729
Au      65.57764361      15.57764361      31.77794549
Au      66.32433543      18.36433543      31.77794549
Au      68.36433543      16.32433543      31.77794549
Au      66.75543816      16.75543816      29.42235639
Au      67.93323271      17.93323271      34.13353459
Au      68.67992453      20.71992453      34.13353459
Au      70.71992453      18.67992453      34.13353459
Au      69.11102725      19.11102725      31.77794549
Au      70.28882180      20.28882180      36.48912369
Au      71.03551363      23.07551363      36.48912369
Au      73.07551363      21.03551363      36.48912369
Au      71.46661635      21.46661635      34.13353459
Au      72.64441090      22.64441090      38.84471279
Au      73.39110273      25.43110273      38.84471279
Au      75.43110273      23.39110273      38.84471279
Au      73.82220545      23.82220545      36.48912369
Au      76.17779455      26.17779455      38.84471279
Au      58.39536268      14.51536268      22.35558910
Au      60.43536268      12.47536268      22.35558910
Au      58.82646541      12.90646541      20.00000000
Au      60.00425996      14.08425996      24.71117820
Au      60.75095178      16.87095178      24.71117820
Au      62.79095178      14.83095178      24.71117820
Au      61.18205451      15.26205451      22.35558910
Au      62.35984906      16.43984906      27.06676729
Au      63.10654088      19.22654088      27.06676729
Au      65.14654088      17.18654088      27.06676729
Au      63.53764361      17.61764361      24.71117820
Au      64.71543816      18.79543816      29.42235639
Au      65.46212998      21.58212998      29.42235639
Au      67.50212998      19.54212998      29.42235639
Au      65.89323271      19.97323271      27.06676729
Au      67.07102725      21.15102725      31.77794549
Au      67.81771908      23.93771908      31.77794549
Au      69.85771908      21.89771908      31.77794549
Au      68.24882180      22.32882180      29.42235639
Au      69.42661635      23.50661635      34.13353459
Au      70.17330818      26.29330818      34.13353459
Au      72.21330818      24.25330818      34.13353459
Au      70.60441090      24.68441090      31.77794549
Au      71.78220545      25.86220545      36.48912369
Au      72.52889727      28.64889727      36.48912369
Au      74.56889727      26.60889727      36.48912369
Au      72.96000000      27.04000000      34.13353459
Au      74.13779455      28.21779455      38.84471279
Au      74.88448637      31.00448637      38.84471279
Au      76.92448637      28.96448637      38.84471279
Au      75.31558910      29.39558910      36.48912369
Au      77.67117820      31.75117820      38.84471279
Au      57.21756814      13.33756814      17.64441090
Au      56.78646541      14.94646541      20.00000000
Au      57.53315723      17.73315723      20.00000000
Au      59.57315723      15.69315723      20.00000000
Au      57.96425996      16.12425996      17.64441090
Au      59.14205451      17.30205451      22.35558910
Au      59.88874633      20.08874633      22.35558910
Au      61.92874633      18.04874633      22.35558910
Au      60.31984906      18.47984906      20.00000000
Au      61.49764361      19.65764361      24.71117820
Au      62.24433543      22.44433543      24.71117820
Au      64.28433543      20.40433543      24.71117820
Au      62.67543816      20.83543816      22.35558910
Au      63.85323271      22.01323271      27.06676729
Au      64.59992453      24.79992453      27.06676729
Au      66.63992453      22.75992453      27.06676729
Au      65.03102725      23.19102725      24.71117820
Au      66.20882180      24.36882180      29.42235639
Au      66.95551363      27.15551363      29.42235639
Au      68.99551363      25.11551363      29.42235639
Au      67.38661635      25.54661635      27.06676729
Au      68.56441090      26.72441090      31.77794549
Au      69.31110273      29.51110273      31.77794549
Au      71.35110273      27.47110273      31.77794549
Au      69.74220545      27.90220545      29.42235639
Au      70.92000000      29.08000000      34.13353459
Au      71.66669182      31.86669182      34.13353459
Au      73.70669182      29.82669182      34.13353459
Au      72.09779455      30.25779455      31.77794549
Au      73.27558910      31.43558910      36.48912369
Au      74.02228092      34.22228092      36.48912369
Au      76.06228092      32.18228092      36.48912369
Au      74.45338365      32.61338365      34.13353459
Au      75.63117820      33.79117820      38.84471279
Au      78.41787002      34.53787002      38.84471279
Au      76.80897275      34.96897275      36.48912369
Au      56.35536268      16.55536268      15.28882180
Au      55.92425996      18.16425996      17.64441090
Au      56.67095178      20.95095178      17.64441090
Au      58.71095178      18.91095178      17.64441090
Au      57.10205451      19.34205451      15.28882180
Au      58.27984906      20.51984906      20.00000000
Au      59.02654088      23.30654088      20.00000000
Au      61.06654088      21.26654088      20.00000000
Au      59.45764361      21.69764361      17.64441090
Au      60.63543816      22.87543816      22.35558910
Au      61.38212998      25.66212998      22.35558910
Au      63.42212998      23.62212998      22.35558910
Au      61.81323271      24.05323271      20.00000000
Au      62.99102725      25.23102725      24.71117820
Au      63.73771908      28.01771908      24.71117820
Au      65.77771908      25.97771908      24.71117820
Au      64.16882180      26.40882180      22.35558910
Au      65.34661635      27.58661635      27.06676729
Au      66.09330818      30.37330818      27.06676729
Au      68.13330818      28.33330818      27.06676729
Au      66.52441090      28.76441090      24.71117820
Au      67.70220545      29.94220545      29.42235639
Au      68.44889727      32.72889727      29.42235639
Au      70.48889727      30.68889727      29.42235639
Au      68.88000000      31.12000000      27.06676729
Au      70.05779455      32.29779455      31.77794549
Au      70.80448637      35.08448637      31.77794549
Au      72.84448637      33.04448637      31.77794549
Au      71.23558910      33.47558910      29.42235639
Au      72.41338365      34.65338365      34.13353459
Au      73.16007547      37.44007547      34.13353459
Au      75.20007547      35.40007547      34.13353459
Au      73.59117820      35.83117820      31.77794549
Au      74.76897275      37.00897275      36.48912369
Au      77.55566457      37.75566457      36.48912369
Au      75.94676729      38.18676729      34.13353459
Au      55.49315723      19.77315723      12.93323271
Au      55.06205451      21.38205451      15.28882180
Au      55.80874633      24.16874633      15.28882180
Au      57.84874633      22.12874633      15.28882180
Au      56.23984906      22.55984906      12.93323271
Au      57.41764361      23.73764361      17.64441090
Au      58.16433543      26.52433543      17.64441090
Au      60.20433543      24.48433543      17.64441090
Au      58.59543816      24.91543816      15.28882180
Au      59.77323271      26.09323271      20.00000000
Au      60.51992453      28.87992453      20.00000000
Au      62.55992453      26.83992453      20.00000000
Au      60.95102725      27.27102725      17.64441090
Au      62.12882180      28.44882180      22.35558910
Au      62.87551363      31.23551363      22.35558910
Au      64.91551363      29.19551363      22.35558910
Au      63.30661635      29.62661635      20.00000000
Au      64.48441090      30.80441090      24.71117820
Au      65.23110273      33.59110273      24.71117820
Au      67.27110273      31.55110273      24.71117820
Au      65.66220545      31.98220545      22.35558910
Au      66.84000000      33.16000000      27.06676729
Au      67.58669182      35.94669182      27.06676729
Au      69.62669182      33.90669182      27.06676729
Au      68.01779455      34.33779455      24.71117820
Au      69.19558910      35.51558910      29.42235639
Au      69.94228092      38.30228092      29.42235639
Au      71.98228092      36.26228092      29.42235639
Au      70.37338365      36.69338365      27.06676729
Au      71.55117820      37.87117820      31.77794549
Au      72.29787002      40.65787002      31.77794549
Au      74.33787002      38.61787002      31.77794549
Au      72.72897275      39.04897275      29.42235639
Au      73.90676729      40.22676729      34.13353459
Au      76.69345912      40.97345912      34.13353459
Au      75.08456184      41.40456184      31.77794549
Au      56.98654088      25.34654088      12.93323271
Au      56.55543816      26.95543816      15.28882180
Au      57.30212998      29.74212998      15.28882180
Au      59.34212998      27.70212998      15.28882180
Au      57.73323271      28.13323271      12.93323271
Au      58.91102725      29.31102725      17.64441090
Au      59.65771908      32.09771908      17.64441090
Au      61.69771908      30.05771908      17.64441090
Au      60.08882180      30.48882180      15.28882180
Au      61.26661635      31.66661635      20.00000000
Au      62.01330818      34.45330818      20.00000000
Au      64.05330818      32.41330818      20.00000000
Au      62.44441090      32.84441090      17.64441090
Au      63.62220545      34.02220545      22.35558910
Au      64.36889727      36.80889727      22.35558910
Au      66.40889727      34.76889727      22.35558910
Au      64.80000000      35.20000000      20.00000000
Au      65.97779455      36.37779455      24.71117820
Au      66.72448637      39.16448637      24.71117820
Au      68.76448637      37.12448637      24.71117820
Au      67.15558910      37.55558910      22.35558910
Au      68.33338365      38.73338365      27.06676729
Au      69.08007547      41.52007547      27.06676729
Au      71.12007547      39.48007547      27.06676729
Au      69.51117820      39.91117820      24.71117820
Au      70.68897275      41.08897275      29.42235639
Au      73.47566457      41.83566457      29.42235639
Au      71.86676729      42.26676729      27.06676729
Au      58.47992453      30.91992453      12.93323271
Au      58.04882180      32.52882180      15.28882180
Au      58.79551363      35.31551363      15.28882180
Au      60.83551363      33.27551363      15.28882180
Au      59.22661635      33.70661635      12.93323271
Au      60.40441090      34.88441090      17.64441090
Au      61.15110273      37.67110273      17.64441090
Au      63.19110273      35.63110273      17.64441090
Au      61.58220545      36.06220545      15.28882180
Au      62.76000000      37.24000000      20.00000000
Au      63.50669182      40.02669182      20.00000000
Au      65.54669182      37.98669182      20.00000000
Au      63.93779455      38.41779455      17.64441090
Au      65.11558910      39.59558910      22.35558910
Au      65.86228092      42.38228092      22.35558910
Au      67.90228092      40.34228092      22.35558910
Au      66.29338365      40.77338365      20.00000000
Au      67.47117820      41.95117820      24.71117820
Au      70.25787002      42.69787002      24.71117820
Au      68.64897275      43.12897275      22.35558910
Au      59.97330818      36.49330818      12.93323271
Au      59.54220545      38.10220545      15.28882180
Au      62.32889727      38.84889727      15.28882180
Au      60.72000000      39.28000000      12.93323271
Au      61.89779455      40.45779455      17.64441090
Au      64.68448637      41.20448637      17.64441090
Au      63.07558910      41.63558910      15.28882180
Au      64.25338365      42.81338365      20.00000000
Au      67.04007547      43.56007547      20.00000000
Au      65.43117820      43.99117820      17.64441090
Au      68.91095178       8.71095178      31.77794549
Au      70.95095178       6.67095178      31.77794549
Au      69.34205451       7.10205451      29.42235639
Au      70.51984906       8.27984906      34.13353459
Au      71.26654088      11.06654088      34.13353459
Au      73.30654088       9.02654088      34.13353459
Au      71.69764361       9.45764361      31.77794549
Au      72.87543816      10.63543816      36.48912369
Au      73.62212998      13.42212998      36.48912369
Au      75.66212998      11.38212998      36.48912369
Au      74.05323271      11.81323271      34.13353459
Au      75.23102725      12.99102725      38.84471279
Au      75.97771908      15.77771908      38.84471279
Au      78.01771908      13.73771908      38.84471279
Au      76.40882180      14.16882180      36.48912369
Au      78.76441090      16.52441090      38.84471279
Au      65.69315723       9.57315723      27.06676729
Au      67.73315723       7.53315723      27.06676729
Au      66.12425996       7.96425996      24.71117820
Au      67.30205451       9.14205451      29.42235639
Au      68.04874633      11.92874633      29.42235639
Au      70.08874633       9.88874633      29.42235639
Au      68.47984906      10.31984906      27.06676729
Au      69.65764361      11.49764361      31.77794549
Au      70.40433543      14.28433543      31.77794549
Au      72.44433543      12.24433543      31.77794549
Au      70.83543816      12.67543816      29.42235639
Au      72.01323271      13.85323271      34.13353459
Au      72.75992453      16.63992453      34.13353459
Au      74.79992453      14.59992453      34.13353459
Au      73.19102725      15.03102725      31.77794549
Au      74.36882180      16.20882180      36.48912369
Au      75.11551363      18.99551363      36.48912369
Au      77.15551363      16.95551363      36.48912369
Au      75.54661635      17.38661635      34.13353459
Au      76.72441090      18.56441090      38.84471279
Au      77.47110273      21.35110273      38.84471279
Au      79.51110273      19.31110273      38.84471279
Au      77.90220545      19.74220545      36.48912369
Au      80.25779455      22.09779455      38.84471279
Au      62.47536268      10.43536268      22.35558910
Au      64.51536268       8.39536268      22.35558910
Au      62.90646541       8.82646541      20.00000000
Au      64.08425996      10.00425996      24.71117820
Au      64.83095178      12.79095178      24.71117820
Au      66.87095178      10.75095178      24.71117820
Au      65.26205451      11.18205451      22.35558910
Au      66.43984906      12.35984906      27.06676729
Au      67.18654088      15.14654088      27.06676729
Au      69.22654088      13.10654088      27.06676729
Au      67.61764361      13.53764361      24.71117820
Au      68.79543816      14.71543816      29.42235639
Au      69.54212998      17.50212998      29.42235639
Au      71.58212998      15.46212998      29.42235639
Au      69.97323271      15.89323271      27.06676729
Au      71.15102725      17.07102725      31.77794549
Au      71.89771908      19.85771908      31.77794549
Au      73.93771908      17.81771908      31.77794549
Au      72.32882180      18.24882180      29.42235639
Au      73.50661635      19.42661635      34.13353459
Au      74.25330818      22.21330818      34.13353459
Au      76.29330818      20.17330818      34.13353459
Au      74.68441090      20.60441090      31.77794549
Au      75.86220545      21.78220545      36.48912369
Au      76.60889727      24.56889727      36.48912369
Au      78.64889727      22.52889727      36.48912369
Au      77.04000000      22.96000000      34.13353459
Au      78.21779455      24.13779455      38.84471279
Au      78.96448637      26.92448637      38.84471279
Au      81.00448637      24.88448637      38.84471279
Au      79.39558910      25.31558910      36.48912369
Au      81.75117820      27.67117820      38.84471279
Au      59.25756814      11.29756814      17.64441090
Au      61.29756814       9.25756814      17.64441090
Au      59.68867086       9.68867086      15.28882180
Au      60.86646541      10.86646541      20.00000000
Au      61.61315723      13.65315723      20.00000000
Au      63.65315723      11.61315723      20.00000000
Au      62.04425996      12.04425996      17.64441090
Au      63.22205451      13.22205451      22.35558910
Au      63.96874633      16.00874633      22.35558910
Au      66.00874633      13.96874633      22.35558910
Au      64.39984906      14.39984906      20.00000000
Au      65.57764361      15.57764361      24.71117820
Au      66.32433543      18.36433543      24.71117820
Au      68.36433543      16.32433543      24.71117820
Au      66.75543816      16.75543816      22.35558910
Au      67.93323271      17.93323271      27.06676729
Au      68.67992453      20.71992453      27.06676729
Au      70.71992453      18.67992453      27.06676729
Au      69.11102725      19.11102725      24.71117820
Au      70.28882180      20.28882180      29.42235639
Au      71.03551363      23.07551363      29.42235639
Au      73.07551363      21.03551363      29.42235639
Au      71.46661635      21.46661635      27.06676729
Au      72.64441090      22.64441090      31.77794549
Au      73.39110273      25.43110273      31.77794549
Au      75.43110273      23.39110273      31.77794549
Au      73.82220545      23.82220545      29.42235639
Au      75.00000000      25.00000000      34.13353459
Au      75.74669182      27.78669182      34.13353459
Au      77.78669182      25.74669182      34.13353459
Au      76.17779455      26.17779455      31.77794549
Au      77.35558910      27.35558910      36.48912369
Au      78.10228092      30.14228092      36.48912369
Au      80.14228092      28.10228092      36.48912369
Au      78.53338365      28.53338365      34.13353459
Au      79.71117820      29.71117820      38.84471279
Au      80.45787002      32.49787002      38.84471279
Au      82.49787002      30.45787002      38.84471279
Au      80.88897275      30.88897275      36.48912369
Au      83.24456184      33.24456184      38.84471279
Au      57.64867086      11.72867086      15.28882180
Au      58.39536268      14.51536268      15.28882180
Au      60.43536268      12.47536268      15.28882180
Au      58.82646541      12.90646541      12.93323271
Au      60.00425996      14.08425996      17.64441090
Au      60.75095178      16.87095178      17.64441090
Au      62.79095178      14.83095178      17.64441090
Au      61.18205451      15.26205451      15.28882180
Au      62.35984906      16.43984906      20.00000000
Au      63.10654088      19.22654088      20.00000000
Au      65.14654088      17.18654088      20.00000000
Au      63.53764361      17.61764361      17.64441090
Au      64.71543816      18.79543816      22.35558910
Au      65.46212998      21.58212998      22.35558910
Au      67.50212998      19.54212998      22.35558910
Au      65.89323271      19.97323271      20.00000000
Au      67.07102725      21.15102725      24.71117820
Au      67.81771908      23.93771908      24.71117820
Au      69.85771908      21.89771908      24.71117820
Au      68.24882180      22.32882180      22.35558910
Au      69.42661635      23.50661635      27.06676729
Au      70.17330818      26.29330818      27.06676729
Au      72.21330818      24.25330818      27.06676729
Au      70.60441090      24.68441090      24.71117820
Au      71.78220545      25.86220545      29.42235639
Au      72.52889727      28.64889727      29.42235639
Au      74.56889727      26.60889727      29.42235639
Au      72.96000000      27.04000000      27.06676729
Au      74.13779455      28.21779455      31.77794549
Au      74.88448637      31.00448637      31.77794549
Au      76.92448637      28.96448637      31.77794549
Au      75.31558910      29.39558910      29.42235639
Au      76.49338365      30.57338365      34.13353459
Au      77.24007547      33.36007547      34.13353459
Au      79.28007547      31.32007547      34.13353459
Au      77.67117820      31.75117820      31.77794549
Au      78.84897275      32.92897275      36.48912369
Au      79.59566457      35.71566457      36.48912369
Au      81.63566457      33.67566457      36.48912369
Au      80.02676729      34.10676729      34.13353459
Au      81.20456184      35.28456184      38.84471279
Au      82.38235639      36.46235639      36.48912369
Au      56.78646541      14.94646541      12.93323271
Au      57.53315723      17.73315723      12.93323271
Au      59.57315723      15.69315723      12.93323271
Au      57.96425996      16.12425996      10.57764361
Au      59.14205451      17.30205451      15.28882180
Au      59.88874633      20.08874633      15.28882180
Au      61.92874633      18.04874633      15.28882180
Au      60.31984906      18.47984906      12.93323271
Au      61.49764361      19.65764361      17.64441090
Au      62.24433543      22.44433543      17.64441090
Au      64.28433543      20.40433543      17.64441090
Au      62.67543816      20.83543816      15.28882180
Au      63.85323271      22.01323271      20.00000000
Au      64.59992453      24.79992453      20.00000000
Au      66.63992453      22.75992453      20.00000000
Au      65.03102725      23.19102725      17.64441090
Au      66.20882180      24.36882180      22.35558910
Au      66.95551363      27.15551363      22.35558910
Au      68.99551363      25.11551363      22.35558910
Au      67.38661635      25.54661635      20.00000000
Au      68.56441090      26.72441090      24.71117820
Au      69.31110273      29.51110273      24.71117820
Au      71.35110273      27.47110273      24.71117820
Au      69.74220545      27.90220545      22.35558910
Au      70.92000000      29.08000000      27.06676729
Au      71.66669182      31.86669182      27.06676729
Au      73.70669182      29.82669182      27.06676729
Au      72.09779455      30.25779455      24.71117820
Au      73.27558910      31.43558910      29.42235639
Au      74.02228092      34.22228092      29.42235639
Au      76.06228092      32.18228092      29.42235639
Au      74.45338365      32.61338365      27.06676729
Au      75.63117820      33.79117820      31.77794549
Au      76.37787002      36.57787002      31.77794549
Au      78.41787002      34.53787002      31.77794549
Au      76.80897275      34.96897275      29.42235639
Au      77.98676729      36.14676729      34.13353459
Au      78.73345912      38.93345912      34.13353459
Au      80.77345912      36.89345912      34.13353459
Au      79.16456184      37.32456184      31.77794549
Au      80.34235639      38.50235639      36.48912369
Au      81.52015094      39.68015094      34.13353459
Au      55.92425996      18.16425996      10.57764361
Au      56.67095178      20.95095178      10.57764361
Au      58.71095178      18.91095178      10.57764361
Au      57.10205451      19.34205451       8.22205451
Au      58.27984906      20.51984906      12.93323271
Au      59.02654088      23.30654088      12.93323271
Au      61.06654088      21.26654088      12.93323271
Au      59.45764361      21.69764361      10.57764361
Au      60.63543816      22.87543816      15.28882180
Au      61.38212998      25.66212998      15.28882180
Au      63.42212998      23.62212998      15.28882180
Au      61.81323271      24.05323271      12.93323271
Au      62.99102725      25.23102725      17.64441090
Au      63.73771908      28.01771908      17.64441090
Au      65.77771908      25.97771908      17.64441090
Au      64.16882180      26.40882180      15.28882180
Au      65.34661635      27.58661635      20.00000000
Au      66.09330818      30.37330818      20.00000000
Au      68.13330818      28.33330818      20.00000000
Au      66.52441090      28.76441090      17.64441090
Au      67.70220545      29.94220545      22.35558910
Au      68.44889727      32.72889727      22.35558910
Au      70.48889727      30.68889727      22.35558910
Au      68.88000000      31.12000000      20.00000000
Au      70.05779455      32.29779455      24.71117820
Au      70.80448637      35.08448637      24.71117820
Au      72.84448637      33.04448637      24.71117820
Au      71.23558910      33.47558910      22.35558910
Au      72.41338365      34.65338365      27.06676729
Au      73.16007547      37.44007547      27.06676729
Au      75.20007547      35.40007547      27.06676729
Au      73.59117820      35.83117820      24.71117820
Au      74.76897275      37.00897275      29.42235639
Au      75.51566457      39.79566457      29.42235639
Au      77.55566457      37.75566457      29.42235639
Au      75.94676729      38.18676729      27.06676729
Au      77.12456184      39.36456184      31.77794549
Au      77.87125367      42.15125367      31.77794549
Au      79.91125367      40.11125367      31.77794549
Au      78.30235639      40.54235639      29.42235639
Au      79.48015094      41.72015094      34.13353459
Au      80.65794549      42.89794549      31.77794549
Au      57.84874633      22.12874633       8.22205451
Au      57.41764361      23.73764361      10.57764361
Au      58.16433543      26.52433543      10.57764361
Au      60.20433543      24.48433543      10.57764361
Au      58.59543816      24.91543816       8.22205451
Au      59.77323271      26.09323271      12.93323271
Au      60.51992453      28.87992453      12.93323271
Au      62.55992453      26.83992453      12.93323271
Au      60.95102725      27.27102725      10.57764361
Au      62.12882180      28.44882180      15.28882180
Au      62.87551363      31.23551363      15.28882180
Au      64.91551363      29.19551363      15.28882180
Au      63.30661635      29.62661635      12.93323271
Au      64.48441090      30.80441090      17.64441090
Au      65.23110273      33.59110273      17.64441090
Au      67.27110273      31.55110273      17.64441090
Au      65.66220545      31.98220545      15.28882180
Au      66.84000000      33.16000000      20.00000000
Au      67.58669182      35.94669182      20.00000000
Au      69.62669182      33.90669182      20.00000000
Au      68.01779455      34.33779455      17.64441090
Au      69.19558910      35.51558910      22.35558910
Au      69.94228092      38.30228092      22.35558910
Au      71.98228092      36.26228092      22.35558910
Au      70.37338365      36.69338365      20.00000000
Au      71.55117820      37.87117820      24.71117820
Au      72.29787002      40.65787002      24.71117820
Au      74.33787002      38.61787002      24.71117820
Au      72.72897275      39.04897275      22.35558910
Au      73.90676729      40.22676729      27.06676729
Au      74.65345912      43.01345912      27.06676729
Au      76.69345912      40.97345912      27.06676729
Au      75.08456184      41.40456184      24.71117820
Au      76.26235639      42.58235639      29.42235639
Au      79.04904822      43.32904822      29.42235639
Au      77.44015094      43.76015094      27.06676729
Au      59.34212998      27.70212998       8.22205451
Au      58.91102725      29.31102725      10.57764361
Au      59.65771908      32.09771908      10.57764361
Au      61.69771908      30.05771908      10.57764361
Au      60.08882180      30.48882180       8.22205451
Au      61.26661635      31.66661635      12.93323271
Au      62.01330818      34.45330818      12.93323271
Au      64.05330818      32.41330818      12.93323271
Au      62.44441090      32.84441090      10.57764361
Au      63.62220545      34.02220545      15.28882180
Au      64.36889727      36.80889727      15.28882180
Au      66.40889727      34.76889727      15.28882180
Au      64.80000000      35.20000000      12.93323271
Au      65.97779455      36.37779455      17.64441090
Au      66.72448637      39.16448637      17.64441090
Au      68.76448637      37.12448637      17.64441090
Au      67.15558910      37.55558910      15.28882180
Au      68.33338365      38.73338365      20.00000000
Au      69.08007547      41.52007547      20.00000000
Au      71.12007547      39.48007547      20.00000000
Au      69.51117820      39.91117820      17.64441090
Au      70.68897275      41.08897275      22.35558910
Au      71.43566457      43.87566457      22.35558910
Au      73.47566457      41.83566457      22.35558910
Au      71.86676729      42.26676729      20.00000000
Au      73.04456184      43.44456184      24.71117820
Au      75.83125367      44.19125367      24.71117820
Au      74.22235639      44.62235639      22.35558910
Au      60.83551363      33.27551363       8.22205451
Au      60.40441090      34.88441090      10.57764361
Au      61.15110273      37.67110273      10.57764361
Au      63.19110273      35.63110273      10.57764361
Au      61.58220545      36.06220545       8.22205451
Au      62.76000000      37.24000000      12.93323271
Au      63.50669182      40.02669182      12.93323271
Au      65.54669182      37.98669182      12.93323271
Au      63.93779455      38.41779455      10.57764361
Au      65.11558910      39.59558910      15.28882180
Au      65.86228092      42.38228092      15.28882180
Au      67.90228092      40.34228092      15.28882180
Au      66.29338365      40.77338365      12.93323271
Au      67.47117820      41.95117820      17.64441090
Au      68.21787002      44.73787002      17.64441090
Au      70.25787002      42.69787002      17.64441090
Au      68.64897275      43.12897275      15.28882180
Au      69.82676729      44.30676729      20.00000000
Au      72.61345912      45.05345912      20.00000000
Au      71.00456184      45.48456184      17.64441090
Au      62.32889727      38.84889727       8.22205451
Au      61.89779455      40.45779455      10.57764361
Au      64.68448637      41.20448637      10.57764361
Au      64.25338365      42.81338365      12.93323271
Au      67.04007547      43.56007547      12.93323271
Au      66.60897275      45.16897275      15.28882180
Au      69.39566457      45.91566457      15.28882180
Au      69.77315723       5.49315723      27.06676729
Au      71.38205451       5.06205451      29.42235639
Au      72.12874633       7.84874633      29.42235639
Au      74.16874633       5.80874633      29.42235639
Au      72.55984906       6.23984906      27.06676729
Au      73.73764361       7.41764361      31.77794549
Au      74.48433543      10.20433543      31.77794549
Au      76.52433543       8.16433543      31.77794549
Au      74.91543816       8.59543816      29.42235639
Au      76.09323271       9.77323271      34.13353459
Au      76.83992453      12.55992453      34.13353459
Au      78.87992453      10.51992453      34.13353459
Au      77.27102725      10.95102725      31.77794549
Au      78.44882180      12.12882180      36.48912369
Au      79.19551363      14.91551363      36.48912369
Au      81.23551363      12.87551363      36.48912369
Au      79.62661635      13.30661635      34.13353459
Au      80.80441090      14.48441090      38.84471279
Au      81.55110273      17.27110273      38.84471279
Au      81.98220545      15.66220545      36.48912369
Au      66.55536268       6.35536268      22.35558910
Au      68.16425996       5.92425996      24.71117820
Au      68.91095178       8.71095178      24.71117820
Au      70.95095178       6.67095178      24.71117820
Au      69.34205451       7.10205451      22.35558910
Au      70.51984906       8.27984906      27.06676729
Au      71.26654088      11.06654088      27.06676729
Au      73.30654088       9.02654088      27.06676729
Au      71.69764361       9.45764361      24.71117820
Au      72.87543816      10.63543816      29.42235639
Au      73.62212998      13.42212998      29.42235639
Au      75.66212998      11.38212998      29.42235639
Au      74.05323271      11.81323271      27.06676729
Au      75.23102725      12.99102725      31.77794549
Au      75.97771908      15.77771908      31.77794549
Au      78.01771908      13.73771908      31.77794549
Au      76.40882180      14.16882180      29.42235639
Au      77.58661635      15.34661635      34.13353459
Au      78.33330818      18.13330818      34.13353459
Au      80.37330818      16.09330818      34.13353459
Au      78.76441090      16.52441090      31.77794549
Au      79.94220545      17.70220545      36.48912369
Au      80.68889727      20.48889727      36.48912369
Au      82.72889727      18.44889727      36.48912369
Au      81.12000000      18.88000000      34.13353459
Au      82.29779455      20.05779455      38.84471279
Au      83.04448637      22.84448637      38.84471279
Au      83.47558910      21.23558910      36.48912369
Au      63.33756814       7.21756814      17.64441090
Au      64.94646541       6.78646541      20.00000000
Au      65.69315723       9.57315723      20.00000000
Au      67.73315723       7.53315723      20.00000000
Au      66.12425996       7.96425996      17.64441090
Au      67.30205451       9.14205451      22.35558910
Au      68.04874633      11.92874633      22.35558910
Au      70.08874633       9.88874633      22.35558910
Au      68.47984906      10.31984906      20.00000000
Au      69.65764361      11.49764361      24.71117820
Au      70.40433543      14.28433543      24.71117820
Au      72.44433543      12.24433543      24.71117820
Au      70.83543816      12.67543816      22.35558910
Au      72.01323271      13.85323271      27.06676729
Au      72.75992453      16.63992453      27.06676729
Au      74.79992453      14.59992453      27.06676729
Au      73.19102725      15.03102725      24.71117820
Au      74.36882180      16.20882180      29.42235639
Au      75.11551363      18.99551363      29.42235639
Au      77.15551363      16.95551363      29.42235639
Au      75.54661635      17.38661635      27.06676729
Au      76.72441090      18.56441090      31.77794549
Au      77.47110273      21.35110273      31.77794549
Au      79.51110273      19.31110273      31.77794549
Au      77.90220545      19.74220545      29.42235639
Au      79.08000000      20.92000000      34.13353459
Au      79.82669182      23.70669182      34.13353459
Au      81.86669182      21.66669182      34.13353459
Au      80.25779455      22.09779455      31.77794549
Au      81.43558910      23.27558910      36.48912369
Au      82.18228092      26.06228092      36.48912369
Au      84.22228092      24.02228092      36.48912369
Au      82.61338365      24.45338365      34.13353459
Au      83.79117820      25.63117820      38.84471279
Au      84.53787002      28.41787002      38.84471279
Au      84.96897275      26.80897275      36.48912369
Au      61.72867086       7.64867086      15.28882180
Au      62.47536268      10.43536268      15.28882180
Au      64.51536268       8.39536268      15.28882180
Au      62.90646541       8.82646541      12.93323271
Au      64.08425996      10.00425996      17.64441090
Au      64.83095178      12.79095178      17.64441090
Au      66.87095178      10.75095178      17.64441090
Au      65.26205451      11.18205451      15.28882180
Au      66.43984906      12.35984906      20.00000000
Au      67.18654088      15.14654088      20.00000000
Au      69.22654088      13.10654088      20.00000000
Au      67.61764361      13.53764361      17.64441090
Au      68.79543816      14.71543816      22.35558910
Au      69.54212998      17.50212998      22.35558910
Au      71.58212998      15.46212998      22.35558910
Au      69.97323271      15.89323271      20.00000000
Au      71.15102725      17.07102725      24.71117820
Au      71.89771908      19.85771908      24.71117820
Au      73.93771908      17.81771908      24.71117820
Au      72.32882180      18.24882180      22.35558910
Au      73.50661635      19.42661635      27.06676729
Au      74.25330818      22.21330818      27.06676729
Au      76.29330818      20.17330818      27.06676729
Au      74.68441090      20.60441090      24.71117820
Au      75.86220545      21.78220545      29.42235639
Au      76.60889727      24.56889727      29.42235639
Au      78.64889727      22.52889727      29.42235639
Au      77.04000000      22.96000000      27.06676729
Au      78.21779455      24.13779455      31.77794549
Au      78.96448637      26.92448637      31.77794549
Au      81.00448637      24.88448637      31.77794549
Au      79.39558910      25.31558910      29.42235639
Au      80.57338365      26.49338365      34.13353459
Au      81.32007547      29.28007547      34.13353459
Au      83.36007547      27.24007547      34.13353459
Au      81.75117820      27.67117820      31.77794549
Au      82.92897275      28.84897275      36.48912369
Au      83.67566457      31.63566457      36.48912369
Au      85.71566457      29.59566457      36.48912369
Au      84.10676729      30.02676729      34.13353459
Au      85.28456184      31.20456184      38.84471279
Au      86.46235639      32.38235639      36.48912369
Au      60.86646541      10.86646541      12.93323271
Au      61.61315723      13.65315723      12.93323271
Au      63.65315723      11.61315723      12.93323271
Au      62.04425996      12.04425996      10.57764361
Au      63.22205451      13.22205451      15.28882180
Au      63.96874633      16.00874633      15.28882180
Au      66.00874633      13.96874633      15.28882180
Au      64.39984906      14.39984906      12.93323271
Au      65.57764361      15.57764361      17.64441090
Au      66.32433543      18.36433543      17.64441090
Au      68.36433543      16.32433543      17.64441090
Au      66.75543816      16.75543816      15.28882180
Au      67.93323271      17.93323271      20.00000000
Au      68.67992453      20.71992453      20.00000000
Au      70.71992453      18.67992453      20.00000000
Au      69.11102725      19.11102725      17.64441090
Au      70.28882180      20.28882180      22.35558910
Au      71.03551363      23.07551363      22.35558910
Au      73.07551363      21.03551363      22.35558910
Au      71.46661635      21.46661635      20.00000000
Au      72.64441090      22.64441090      24.71117820
Au      73.39110273      25.43110273      24.71117820
Au      75.43110273      23.39110273      24.71117820
Au      73.82220545      23.82220545      22.35558910
Au      75.00000000      25.00000000      27.06676729
Au      75.74669182      27.78669182      27.06676729
Au      77.78669182      25.74669182      27.06676729
Au      76.17779455      26.17779455      24.71117820
Au      77.35558910      27.35558910      29.42235639
Au      78.10228092      30.14228092      29.42235639
Au      80.14228092      28.10228092      29.42235639
Au      78.53338365      28.53338365      27.06676729
Au      79.71117820      29.71117820      31.77794549
Au      80.45787002      32.49787002      31.77794549
Au      82.49787002      30.45787002      31.77794549
Au      80.88897275      30.88897275      29.42235639
Au      82.06676729      32.06676729      34.13353459
Au      82.81345912      34.85345912      34.13353459
Au      84.85345912      32.81345912      34.13353459
Au      83.24456184      33.24456184      31.77794549
Au      84.42235639      34.42235639      36.48912369
Au      85.60015094      35.60015094      34.13353459
Au      60.00425996      14.08425996      10.57764361
Au      60.75095178      16.87095178      10.57764361
Au      62.79095178      14.83095178      10.57764361
Au      61.18205451      15.26205451       8.22205451
Au      62.35984906      16.43984906      12.93323271
Au      63.10654088      19.22654088      12.93323271
Au      65.14654088      17.18654088      12.93323271
Au      63.53764361      17.61764361      10.57764361
Au      64.71543816      18.79543816      15.28882180
Au      65.46212998      21.58212998      15.28882180
Au      67.50212998      19.54212998      15.28882180
Au      65.89323271      19.97323271      12.93323271
Au      67.07102725      21.15102725      17.64441090
Au      67.81771908      23.93771908      17.64441090
Au      69.85771908      21.89771908      17.64441090
Au      68.24882180      22.32882180      15.28882180
Au      69.42661635      23.50661635      20.00000000
Au      70.17330818      26.29330818      20.00000000
Au      72.21330818      24.25330818      20.00000000
Au      70.60441090      24.68441090      17.64441090
Au      71.78220545      25.86220545      22.35558910
Au      72.52889727      28.64889727      22.35558910
Au      74.56889727      26.60889727      22.35558910
Au      72.96000000      27.04000000      20.00000000
Au      74.13779455      28.21779455      24.71117820
Au      74.88448637      31.00448637      24.71117820
Au      76.92448637      28.96448637      24.71117820
Au      75.31558910      29.39558910      22.35558910
Au      76.49338365      30.57338365      27.06676729
Au      77.24007547      33.36007547      27.06676729
Au      79.28007547      31.32007547      27.06676729
Au      77.67117820      31.75117820      24.71117820
Au      78.84897275      32.92897275      29.42235639
Au      79.59566457      35.71566457      29.42235639
Au      81.63566457      33.67566457      29.42235639
Au      80.02676729      34.10676729      27.06676729
Au      81.20456184      35.28456184      31.77794549
Au      81.95125367      38.07125367      31.77794549
Au      83.99125367      36.03125367      31.77794549
Au      82.38235639      36.46235639      29.42235639
Au      83.56015094      37.64015094      34.13353459
Au      84.73794549      38.81794549      31.77794549
Au      59.14205451      17.30205451       8.22205451
Au      59.88874633      20.08874633       8.22205451
Au      61.92874633      18.04874633       8.22205451
Au      60.31984906      18.47984906       5.86646541
Au      61.49764361      19.65764361      10.57764361
Au      62.24433543      22.44433543      10.57764361
Au      64.28433543      20.40433543      10.57764361
Au      62.67543816      20.83543816       8.22205451
Au      63.85323271      22.01323271      12.93323271
Au      64.59992453      24.79992453      12.93323271
Au      66.63992453      22.75992453      12.93323271
Au      65.03102725      23.19102725      10.57764361
Au      66.20882180      24.36882180      15.28882180
Au      66.95551363      27.15551363      15.28882180
Au      68.99551363      25.11551363      15.28882180
Au      67.38661635      25.54661635      12.93323271
Au      68.56441090      26.72441090      17.64441090
Au      69.31110273      29.51110273      17.64441090
Au      71.35110273      27.47110273      17.64441090
Au      69.74220545      27.90220545      15.28882180
Au      70.92000000      29.08000000      20.00000000
Au      71.66669182      31.86669182      20.00000000
Au      73.70669182      29.82669182      20.00000000
Au      72.09779455      30.25779455      17.64441090
Au      73.27558910      31.43558910      22.35558910
Au      74.02228092      34.22228092      22.35558910
Au      76.06228092      32.18228092      22.35558910
Au      74.45338365      32.61338365      20.00000000
Au      75.63117820      33.79117820      24.71117820
Au      76.37787002      36.57787002      24.71117820
Au      78.41787002      34.53787002      24.71117820
Au      76.80897275      34.96897275      22.35558910
Au      77.98676729      36.14676729      27.06676729
Au      78.73345912      38.93345912      27.06676729
Au      80.77345912      36.89345912      27.06676729
Au      79.16456184      37.32456184      24.71117820
Au      80.34235639      38.50235639      29.42235639
Au      81.08904822      41.28904822      29.42235639
Au      83.12904822      39.24904822      29.42235639
Au      81.52015094      39.68015094      27.06676729
Au      82.69794549      40.85794549      31.77794549
Au      83.87574004      42.03574004      29.42235639
Au      58.27984906      20.51984906       5.86646541
Au      59.02654088      23.30654088       5.86646541
Au      61.06654088      21.26654088       5.86646541
Au      60.63543816      22.87543816       8.22205451
Au      61.38212998      25.66212998       8.22205451
Au      63.42212998      23.62212998       8.22205451
Au      61.81323271      24.05323271       5.86646541
Au      62.99102725      25.23102725      10.57764361
Au      63.73771908      28.01771908      10.57764361
Au      65.77771908      25.97771908      10.57764361
Au      64.16882180      26.40882180       8.22205451
Au      65.34661635      27.58661635      12.93323271
Au      66.09330818      30.37330818      12.93323271
Au      68.13330818      28.33330818      12.93323271
Au      66.52441090      28.76441090      10.57764361
Au      67.70220545      29.94220545      15.28882180
Au      68.44889727      32.72889727      15.28882180
Au      70.48889727      30.68889727      15.28882180
Au      68.88000000      31.12000000      12.93323271
Au      70.05779455      32.29779455      17.64441090
Au      70.80448637      35.08448637      17.64441090
Au      72.84448637      33.04448637      17.64441090
Au      71.23558910      33.47558910      15.28882180
Au      72.41338365      34.65338365      20.00000000
Au      73.16007547      37.44007547      20.00000000
Au      75.20007547      35.40007547      20.00000000
Au      73.59117820      35.83117820      17.64441090
Au      74.76897275      37.00897275      22.35558910
Au      75.51566457      39.79566457      22.35558910
Au      77.55566457      37.75566457      22.35558910
Au      75.94676729      38.18676729      20.00000000
Au      77.12456184      39.36456184      24.71117820
Au      77.87125367      42.15125367      24.71117820
Au      79.91125367      40.11125367      24.71117820
Au      78.30235639      40.54235639      22.35558910
Au      79.48015094      41.72015094      27.06676729
Au      80.22684277      44.50684277      27.06676729
Au      82.26684277      42.46684277      27.06676729
Au      80.65794549      42.89794549      24.71117820
Au      81.83574004      44.07574004      29.42235639
Au      59.77323271      26.09323271       5.86646541
Au      60.51992453      28.87992453       5.86646541
Au      62.55992453      26.83992453       5.86646541
Au      62.12882180      28.44882180       8.22205451
Au      62.87551363      31.23551363       8.22205451
Au      64.91551363      29.19551363       8.22205451
Au      63.30661635      29.62661635       5.86646541
Au      64.48441090      30.80441090      10.57764361
Au      65.23110273      33.59110273      10.57764361
Au      67.27110273      31.55110273      10.57764361
Au      65.66220545      31.98220545       8.22205451
Au      66.84000000      33.16000000      12.93323271
Au      67.58669182      35.94669182      12.93323271
Au      69.62669182      33.90669182      12.93323271
Au      68.01779455      34.33779455      10.57764361
Au      69.19558910      35.51558910      15.28882180
Au      69.94228092      38.30228092      15.28882180
Au      71.98228092      36.26228092      15.28882180
Au      70.37338365      36.69338365      12.93323271
Au      71.55117820      37.87117820      17.64441090
Au      72.29787002      40.65787002      17.64441090
Au      74.33787002      38.61787002      17.64441090
Au      72.72897275      39.04897275      15.28882180
Au      73.90676729      40.22676729      20.00000000
Au      74.65345912      43.01345912      20.00000000
Au      76.69345912      40.97345912      20.00000000
Au      75.08456184      41.40456184      17.64441090
Au      76.26235639      42.58235639      22.35558910
Au      77.00904822      45.36904822      22.35558910
Au      79.04904822      43.32904822      22.35558910
Au      77.44015094      43.76015094      20.00000000
Au      78.61794549      44.93794549      24.71117820
Au      61.26661635      31.66661635       5.86646541
Au      62.01330818      34.45330818       5.86646541
Au      64.05330818      32.41330818       5.86646541
Au      63.62220545      34.02220545       8.22205451
Au      64.36889727      36.80889727       8.22205451
Au      66.40889727      34.76889727       8.22205451
Au      64.80000000      35.20000000       5.86646541
Au      65.97779455      36.37779455      10.57764361
Au      66.72448637      39.16448637      10.57764361
Au      68.76448637      37.12448637      10.57764361
Au      67.15558910      37.55558910       8.22205451
Au      68.33338365      38.73338365      12.93323271
Au      69.08007547      41.52007547      12.93323271
Au      71.12007547      39.48007547      12.93323271
Au      69.51117820      39.91117820      10.57764361
Au      70.68897275      41.08897275      15.28882180
Au      71.43566457      43.87566457      15.28882180
Au      73.47566457      41.83566457      15.28882180
Au      71.86676729      42.26676729      12.93323271
Au      73.04456184      43.44456184      17.64441090
Au      73.79125367      46.23125367      17.64441090
Au      75.83125367      44.19125367      17.64441090
Au      74.22235639      44.62235639      15.28882180
Au      75.40015094      45.80015094      20.00000000
Au      62.76000000      37.24000000       5.86646541
Au      65.54669182      37.98669182       5.86646541
Au      65.11558910      39.59558910       8.22205451
Au      67.90228092      40.34228092       8.22205451
Au      67.47117820      41.95117820      10.57764361
Au      70.25787002      42.69787002      10.57764361
Au      69.82676729      44.30676729      12.93323271
Au      72.61345912      45.05345912      12.93323271
Au      72.18235639      46.66235639      15.28882180
Au      72.99095178       4.63095178      24.71117820
Au      74.59984906       4.19984906      27.06676729
Au      75.34654088       6.98654088      27.06676729
Au      77.38654088       4.94654088      27.06676729
Au      75.77764361       5.37764361      24.71117820
Au      76.95543816       6.55543816      29.42235639
Au      77.70212998       9.34212998      29.42235639
Au      79.74212998       7.30212998      29.42235639
Au      78.13323271       7.73323271      27.06676729
Au      79.31102725       8.91102725      31.77794549
Au      80.05771908      11.69771908      31.77794549
Au      82.09771908       9.65771908      31.77794549
Au      80.48882180      10.08882180      29.42235639
Au      81.66661635      11.26661635      34.13353459
Au      82.41330818      14.05330818      34.13353459
Au      84.45330818      12.01330818      34.13353459
Au      82.84441090      12.44441090      31.77794549
Au      84.02220545      13.62220545      36.48912369
Au      84.76889727      16.40889727      36.48912369
Au      85.20000000      14.80000000      34.13353459
Au      69.77315723       5.49315723      20.00000000
Au      71.38205451       5.06205451      22.35558910
Au      72.12874633       7.84874633      22.35558910
Au      74.16874633       5.80874633      22.35558910
Au      72.55984906       6.23984906      20.00000000
Au      73.73764361       7.41764361      24.71117820
Au      74.48433543      10.20433543      24.71117820
Au      76.52433543       8.16433543      24.71117820
Au      74.91543816       8.59543816      22.35558910
Au      76.09323271       9.77323271      27.06676729
Au      76.83992453      12.55992453      27.06676729
Au      78.87992453      10.51992453      27.06676729
Au      77.27102725      10.95102725      24.71117820
Au      78.44882180      12.12882180      29.42235639
Au      79.19551363      14.91551363      29.42235639
Au      81.23551363      12.87551363      29.42235639
Au      79.62661635      13.30661635      27.06676729
Au      80.80441090      14.48441090      31.77794549
Au      81.55110273      17.27110273      31.77794549
Au      83.59110273      15.23110273      31.77794549
Au      81.98220545      15.66220545      29.42235639
Au      83.16000000      16.84000000      34.13353459
Au      83.90669182      19.62669182      34.13353459
Au      85.94669182      17.58669182      34.13353459
Au      84.33779455      18.01779455      31.77794549
Au      85.51558910      19.19558910      36.48912369
Au      86.26228092      21.98228092      36.48912369
Au      86.69338365      20.37338365      34.13353459
Au      66.55536268       6.35536268      15.28882180
Au      68.16425996       5.92425996      17.64441090
Au      68.91095178       8.71095178      17.64441090
Au      70.95095178       6.67095178      17.64441090
Au      69.34205451       7.10205451      15.28882180
Au      70.51984906       8.27984906      20.00000000
Au      71.26654088      11.06654088      20.00000000
Au      73.30654088       9.02654088      20.00000000
Au      71.69764361       9.45764361      17.64441090
Au      72.87543816      10.63543816      22.35558910
Au      73.62212998      13.42212998      22.35558910
Au      75.66212998      11.38212998      22.35558910
Au      74.05323271      11.81323271      20.00000000
Au      75.23102725      12.99102725      24.71117820
Au      75.97771908      15.77771908      24.71117820
Au      78.01771908      13.73771908      24.71117820
Au      76.40882180      14.16882180      22.35558910
Au      77.58661635      15.34661635      27.06676729
Au      78.33330818      18.13330818      27.06676729
Au      80.37330818      16.09330818      27.06676729
Au      78.76441090      16.52441090      24.71117820
Au      79.94220545      17.70220545      29.42235639
Au      80.68889727      20.48889727      29.42235639
Au      82.72889727      18.44889727      29.42235639
Au      81.12000000      18.88000000      27.06676729
Au      82.29779455      20.05779455      31.77794549
Au      83.04448637      22.84448637      31.77794549
Au      85.08448637      20.80448637      31.77794549
Au      83.47558910      21.23558910      29.42235639
Au      84.65338365      22.41338365      34.13353459
Au      85.40007547      25.20007547      34.13353459
Au      87.44007547      23.16007547      34.13353459
Au      85.83117820      23.59117820      31.77794549
Au      87.00897275      24.76897275      36.48912369
Au      87.75566457      27.55566457      36.48912369
Au      88.18676729      25.94676729      34.13353459
Au      64.94646541       6.78646541      12.93323271
Au      65.69315723       9.57315723      12.93323271
Au      67.73315723       7.53315723      12.93323271
Au      66.12425996       7.96425996      10.57764361
Au      67.30205451       9.14205451      15.28882180
Au      68.04874633      11.92874633      15.28882180
Au      70.08874633       9.88874633      15.28882180
Au      68.47984906      10.31984906      12.93323271
Au      69.65764361      11.49764361      17.64441090
Au      70.40433543      14.28433543      17.64441090
Au      72.44433543      12.24433543      17.64441090
Au      70.83543816      12.67543816      15.28882180
Au      72.01323271      13.85323271      20.00000000
Au      72.75992453      16.63992453      20.00000000
Au      74.79992453      14.59992453      20.00000000
Au      73.19102725      15.03102725      17.64441090
Au      74.36882180      16.20882180      22.35558910
Au      75.11551363      18.99551363      22.35558910
Au      77.15551363      16.95551363      22.35558910
Au      75.54661635      17.38661635      20.00000000
Au      76.72441090      18.56441090      24.71117820
Au      77.47110273      21.35110273      24.71117820
Au      79.51110273      19.31110273      24.71117820
Au      77.90220545      19.74220545      22.35558910
Au      79.08000000      20.92000000      27.06676729
Au      79.82669182      23.70669182      27.06676729
Au      81.86669182      21.66669182      27.06676729
Au      80.25779455      22.09779455      24.71117820
Au      81.43558910      23.27558910      29.42235639
Au      82.18228092      26.06228092      29.42235639
Au      84.22228092      24.02228092      29.42235639
Au      82.61338365      24.45338365      27.06676729
Au      83.79117820      25.63117820      31.77794549
Au      84.53787002      28.41787002      31.77794549
Au      86.57787002      26.37787002      31.77794549
Au      84.96897275      26.80897275      29.42235639
Au      86.14676729      27.98676729      34.13353459
Au      86.89345912      30.77345912      34.13353459
Au      88.93345912      28.73345912      34.13353459
Au      87.32456184      29.16456184      31.77794549
Au      88.50235639      30.34235639      36.48912369
Au      89.68015094      31.52015094      34.13353459
Au      64.08425996      10.00425996      10.57764361
Au      64.83095178      12.79095178      10.57764361
Au      66.87095178      10.75095178      10.57764361
Au      65.26205451      11.18205451       8.22205451
Au      66.43984906      12.35984906      12.93323271
Au      67.18654088      15.14654088      12.93323271
Au      69.22654088      13.10654088      12.93323271
Au      67.61764361      13.53764361      10.57764361
Au      68.79543816      14.71543816      15.28882180
Au      69.54212998      17.50212998      15.28882180
Au      71.58212998      15.46212998      15.28882180
Au      69.97323271      15.89323271      12.93323271
Au      71.15102725      17.07102725      17.64441090
Au      71.89771908      19.85771908      17.64441090
Au      73.93771908      17.81771908      17.64441090
Au      72.32882180      18.24882180      15.28882180
Au      73.50661635      19.42661635      20.00000000
Au      74.25330818      22.21330818      20.00000000
Au      76.29330818      20.17330818      20.00000000
Au      74.68441090      20.60441090      17.64441090
Au      75.86220545      21.78220545      22.35558910
Au      76.60889727      24.56889727      22.35558910
Au      78.64889727      22.52889727      22.35558910
Au      77.04000000      22.96000000      20.00000000
Au      78.21779455      24.13779455      24.71117820
Au      78.96448637      26.92448637      24.71117820
Au      81.00448637      24.88448637      24.71117820
Au      79.39558910      25.31558910      22.35558910
Au      80.57338365      26.49338365      27.06676729
Au      81.32007547      29.28007547      27.06676729
Au      83.36007547      27.24007547      27.06676729
Au      81.75117820      27.67117820      24.71117820
Au      82.92897275      28.84897275      29.42235639
Au      83.67566457      31.63566457      29.42235639
Au      85.71566457      29.59566457      29.42235639
Au      84.10676729      30.02676729      27.06676729
Au      85.28456184      31.20456184      31.77794549
Au      86.03125367      33.99125367      31.77794549
Au      88.07125367      31.95125367      31.77794549
Au      86.46235639      32.38235639      29.42235639
Au      87.64015094      33.56015094      34.13353459
Au      88.81794549      34.73794549      31.77794549
Au      63.22205451      13.22205451       8.22205451
Au      63.96874633      16.00874633       8.22205451
Au      66.00874633      13.96874633       8.22205451
Au      64.39984906      14.39984906       5.86646541
Au      65.57764361      15.57764361      10.57764361
Au      66.32433543      18.36433543      10.57764361
Au      68.36433543      16.32433543      10.57764361
Au      66.75543816      16.75543816       8.22205451
Au      67.93323271      17.93323271      12.93323271
Au      68.67992453      20.71992453      12.93323271
Au      70.71992453      18.67992453      12.93323271
Au      69.11102725      19.11102725      10.57764361
Au      70.28882180      20.28882180      15.28882180
Au      71.03551363      23.07551363      15.28882180
Au      73.07551363      21.03551363      15.28882180
Au      71.46661635      21.46661635      12.93323271
Au      72.64441090      22.64441090      17.64441090
Au      73.39110273      25.43110273      17.64441090
Au      75.43110273      23.39110273      17.64441090
Au      73.82220545      23.82220545      15.28882180
Au      75.00000000      25.00000000      20.00000000
Au      75.74669182      27.78669182      20.00000000
Au      77.78669182      25.74669182      20.00000000
Au      76.17779455      26.17779455      17.64441090
Au      77.35558910      27.35558910      22.35558910
Au      78.10228092      30.14228092      22.35558910
Au      80.14228092      28.10228092      22.35558910
Au      78.53338365      28.53338365      20.00000000
Au      79.71117820      29.71117820      24.71117820
Au      80.45787002      32.49787002      24.71117820
Au      82.49787002      30.45787002      24.71117820
Au      80.88897275      30.88897275      22.35558910
Au      82.06676729      32.06676729      27.06676729
Au      82.81345912      34.85345912      27.06676729
Au      84.85345912      32.81345912      27.06676729
Au      83.24456184      33.24456184      24.71117820
Au      84.42235639      34.42235639      29.42235639
Au      85.16904822      37.20904822      29.42235639
Au      87.20904822      35.16904822      29.42235639
Au      85.60015094      35.60015094      27.06676729
Au      86.77794549      36.77794549      31.77794549
Au      87.95574004      37.95574004      29.42235639
Au      62.35984906      16.43984906       5.86646541
Au      63.10654088      19.22654088       5.86646541
Au      65.14654088      17.18654088       5.86646541
Au      63.53764361      17.61764361       3.51087631
Au      64.71543816      18.79543816       8.22205451
Au      65.46212998      21.58212998       8.22205451
Au      67.50212998      19.54212998       8.22205451
Au      65.89323271      19.97323271       5.86646541
Au      67.07102725      21.15102725      10.57764361
Au      67.81771908      23.93771908      10.57764361
Au      69.85771908      21.89771908      10.57764361
Au      68.24882180      22.32882180       8.22205451
Au      69.42661635      23.50661635      12.93323271
Au      70.17330818      26.29330818      12.93323271
Au      72.21330818      24.25330818      12.93323271
Au      70.60441090      24.68441090      10.57764361
Au      71.78220545      25.86220545      15.28882180
Au      72.52889727      28.64889727      15.28882180
Au      74.56889727      26.60889727      15.28882180
Au      72.96000000      27.04000000      12.93323271
Au      74.13779455      28.21779455      17.64441090
Au      74.88448637      31.00448637      17.64441090
Au      76.92448637      28.96448637      17.64441090
Au      75.31558910      29.39558910      15.28882180
Au      76.49338365      30.57338365      20.00000000
Au      77.24007547      33.36007547      20.00000000
Au      79.28007547      31.32007547      20.00000000
Au      77.67117820      31.75117820      17.64441090
Au      78.84897275      32.92897275      22.35558910
Au      79.59566457      35.71566457      22.35558910
Au      81.63566457      33.67566457      22.35558910
Au      80.02676729      34.10676729      20.00000000
Au      81.20456184      35.28456184      24.71117820
Au      81.95125367      38.07125367      24.71117820
Au      83.99125367      36.03125367      24.71117820
Au      82.38235639      36.46235639      22.35558910
Au      83.56015094      37.64015094      27.06676729
Au      84.30684277      40.42684277      27.06676729
Au      86.34684277      38.38684277      27.06676729
Au      84.73794549      38.81794549      24.71117820
Au      85.91574004      39.99574004      29.42235639
Au      87.09353459      41.17353459      27.06676729
Au      61.49764361      19.65764361       3.51087631
Au      62.24433543      22.44433543       3.51087631
Au      64.28433543      20.40433543       3.51087631
Au      63.85323271      22.01323271       5.86646541
Au      64.59992453      24.79992453       5.86646541
Au      66.63992453      22.75992453       5.86646541
Au      65.03102725      23.19102725       3.51087631
Au      66.20882180      24.36882180       8.22205451
Au      66.95551363      27.15551363       8.22205451
Au      68.99551363      25.11551363       8.22205451
Au      67.38661635      25.54661635       5.86646541
Au      68.56441090      26.72441090      10.57764361
Au      69.31110273      29.51110273      10.57764361
Au      71.35110273      27.47110273      10.57764361
Au      69.74220545      27.90220545       8.22205451
Au      70.92000000      29.08000000      12.93323271
Au      71.66669182      31.86669182      12.93323271
Au      73.70669182      29.82669182      12.93323271
Au      72.09779455      30.25779455      10.57764361
Au      73.27558910      31.43558910      15.28882180
Au      74.02228092      34.22228092      15.28882180
Au      76.06228092      32.18228092      15.28882180
Au      74.45338365      32.61338365      12.93323271
Au      75.63117820      33.79117820      17.64441090
Au      76.37787002      36.57787002      17.64441090
Au      78.41787002      34.53787002      17.64441090
Au      76.80897275      34.96897275      15.28882180
Au      77.98676729      36.14676729      20.00000000
Au      78.73345912      38.93345912      20.00000000
Au      80.77345912      36.89345912      20.00000000
Au      79.16456184      37.32456184      17.64441090
Au      80.34235639      38.50235639      22.35558910
Au      81.08904822      41.28904822      22.35558910
Au      83.12904822      39.24904822      22.35558910
Au      81.52015094      39.68015094      20.00000000
Au      82.69794549      40.85794549      24.71117820
Au      83.44463732      43.64463732      24.71117820
Au      85.48463732      41.60463732      24.71117820
Au      83.87574004      42.03574004      22.35558910
Au      85.05353459      43.21353459      27.06676729
Au      62.99102725      25.23102725       3.51087631
Au      63.73771908      28.01771908       3.51087631
Au      65.77771908      25.97771908       3.51087631
Au      65.34661635      27.58661635       5.86646541
Au      66.09330818      30.37330818       5.86646541
Au      68.13330818      28.33330818       5.86646541
Au      66.52441090      28.76441090       3.51087631
Au      67.70220545      29.94220545       8.22205451
Au      68.44889727      32.72889727       8.22205451
Au      70.48889727      30.68889727       8.22205451
Au      68.88000000      31.12000000       5.86646541
Au      70.05779455      32.29779455      10.57764361
Au      70.80448637      35.08448637      10.57764361
Au      72.84448637      33.04448637      10.57764361
Au      71.23558910      33.47558910       8.22205451
Au      72.41338365      34.65338365      12.93323271
Au      73.16007547      37.44007547      12.93323271
Au      75.20007547      35.40007547      12.93323271
Au      73.59117820      35.83117820      10.57764361
Au      74.76897275      37.00897275      15.28882180
Au      75.51566457      39.79566457      15.28882180
Au      77.55566457      37.75566457      15.28882180
Au      75.94676729      38.18676729      12.93323271
Au      77.12456184      39.36456184      17.64441090
Au      77.87125367      42.15125367      17.64441090
Au      79.91125367      40.11125367      17.64441090
Au      78.30235639      40.54235639      15.28882180
Au      79.48015094      41.72015094      20.00000000
Au      80.22684277      44.50684277      20.00000000
Au      82.26684277      42.46684277      20.00000000
Au      80.65794549      42.89794549      17.64441090
Au      81.83574004      44.07574004      22.35558910
Au      64.48441090      30.80441090       3.51087631
Au      65.23110273      33.59110273       3.51087631
Au      67.27110273      31.55110273       3.51087631
Au      66.84000000      33.16000000       5.86646541
Au      67.58669182      35.94669182       5.86646541
Au      69.62669182      33.90669182       5.86646541
Au      68.01779455      34.33779455       3.51087631
Au      69.19558910      35.51558910       8.22205451
Au      69.94228092      38.30228092       8.22205451
Au      71.98228092      36.26228092       8.22205451
Au      70.37338365      36.69338365       5.86646541
Au      71.55117820      37.87117820      10.57764361
Au      72.29787002      40.65787002      10.57764361
Au      74.33787002      38.61787002      10.57764361
Au      72.72897275      39.04897275       8.22205451
Au      73.90676729      40.22676729      12.93323271
Au      74.65345912      43.01345912      12.93323271
Au      76.69345912      40.97345912      12.93323271
Au      75.08456184      41.40456184      10.57764361
Au      76.26235639      42.58235639      15.28882180
Au      77.00904822      45.36904822      15.28882180
Au      79.04904822      43.32904822      15.28882180
Au      77.44015094      43.76015094      12.93323271
Au      78.61794549      44.93794549      17.64441090
Au      65.97779455      36.37779455       3.51087631
Au      68.76448637      37.12448637       3.51087631
Au      68.33338365      38.73338365       5.86646541
Au      71.12007547      39.48007547       5.86646541
Au      70.68897275      41.08897275       8.22205451
Au      73.47566457      41.83566457       8.22205451
Au      73.04456184      43.44456184      10.57764361
Au      75.83125367      44.19125367      10.57764361
Au      75.40015094      45.80015094      12.93323271
Au      76.20874633       3.76874633      22.35558910
Au      77.81764361       3.33764361      24.71117820
Au      78.56433543       6.12433543      24.71117820
Au      80.60433543       4.08433543      24.71117820
Au      78.99543816       4.51543816      22.35558910
Au      80.17323271       5.69323271      27.06676729
Au      80.91992453       8.47992453      27.06676729
Au      82.95992453       6.43992453      27.06676729
Au      81.35102725       6.87102725      24.71117820
Au      82.52882180       8.04882180      29.42235639
Au      83.27551363      10.83551363      29.42235639
Au      85.31551363       8.79551363      29.42235639
Au      83.70661635       9.22661635      27.06676729
Au      84.88441090      10.40441090      31.77794549
Au      85.63110273      13.19110273      31.77794549
Au      87.67110273      11.15110273      31.77794549
Au      86.06220545      11.58220545      29.42235639
Au      87.24000000      12.76000000      34.13353459
Au      87.98669182      15.54669182      34.13353459
Au      88.41779455      13.93779455      31.77794549
Au      72.99095178       4.63095178      17.64441090
Au      74.59984906       4.19984906      20.00000000
Au      75.34654088       6.98654088      20.00000000
Au      77.38654088       4.94654088      20.00000000
Au      75.77764361       5.37764361      17.64441090
Au      76.95543816       6.55543816      22.35558910
Au      77.70212998       9.34212998      22.35558910
Au      79.74212998       7.30212998      22.35558910
Au      78.13323271       7.73323271      20.00000000
Au      79.31102725       8.91102725      24.71117820
Au      80.05771908      11.69771908      24.71117820
Au      82.09771908       9.65771908      24.71117820
Au      80.48882180      10.08882180      22.35558910
Au      81.66661635      11.26661635      27.06676729
Au      82.41330818      14.05330818      27.06676729
Au      84.45330818      12.01330818      27.06676729
Au      82.84441090      12.44441090      24.71117820
Au      84.02220545      13.62220545      29.42235639
Au      84.76889727      16.40889727      29.42235639
Au      86.80889727      14.36889727      29.42235639
Au      85.20000000      14.80000000      27.06676729
Au      86.37779455      15.97779455      31.77794549
Au      87.12448637      18.76448637      31.77794549
Au      89.16448637      16.72448637      31.77794549
Au      87.55558910      17.15558910      29.42235639
Au      88.73338365      18.33338365      34.13353459
Au      89.48007547      21.12007547      34.13353459
Au      89.91117820      19.51117820      31.77794549
Au      69.77315723       5.49315723      12.93323271
Au      71.38205451       5.06205451      15.28882180
Au      72.12874633       7.84874633      15.28882180
Au      74.16874633       5.80874633      15.28882180
Au      72.55984906       6.23984906      12.93323271
Au      73.73764361       7.41764361      17.64441090
Au      74.48433543      10.20433543      17.64441090
Au      76.52433543       8.16433543      17.64441090
Au      74.91543816       8.59543816      15.28882180
Au      76.09323271       9.77323271      20.00000000
Au      76.83992453      12.55992453      20.00000000
Au      78.87992453      10.51992453      20.00000000
Au      77.27102725      10.95102725      17.64441090
Au      78.44882180      12.12882180      22.35558910
Au      79.19551363      14.91551363      22.35558910
Au      81.23551363      12.87551363      22.35558910
Au      79.62661635      13.30661635      20.00000000
Au      80.80441090      14.48441090      24.71117820
Au      81.55110273      17.27110273      24.71117820
Au      83.59110273      15.23110273      24.71117820
Au      81.98220545      15.66220545      22.35558910
Au      83.16000000      16.84000000      27.06676729
Au      83.90669182      19.62669182      27.06676729
Au      85.94669182      17.58669182      27.06676729
Au      84.33779455      18.01779455      24.71117820
Au      85.51558910      19.19558910      29.42235639
Au      86.26228092      21.98228092      29.42235639
Au      88.30228092      19.94228092      29.42235639
Au      86.69338365      20.37338365      27.06676729
Au      87.87117820      21.55117820      31.77794549
Au      88.61787002      24.33787002      31.77794549
Au      90.65787002      22.29787002      31.77794549
Au      89.04897275      22.72897275      29.42235639
Au      90.22676729      23.90676729      34.13353459
Au      90.97345912      26.69345912      34.13353459
Au      91.40456184      25.08456184      31.77794549
Au      68.16425996       5.92425996      10.57764361
Au      68.91095178       8.71095178      10.57764361
Au      70.95095178       6.67095178      10.57764361
Au      69.34205451       7.10205451       8.22205451
Au      70.51984906       8.27984906      12.93323271
Au      71.26654088      11.06654088      12.93323271
Au      73.30654088       9.02654088      12.93323271
Au      71.69764361       9.45764361      10.57764361
Au      72.87543816      10.63543816      15.28882180
Au      73.62212998      13.42212998      15.28882180
Au      75.66212998      11.38212998      15.28882180
Au      74.05323271      11.81323271      12.93323271
Au      75.23102725      12.99102725      17.64441090
Au      75.97771908      15.77771908      17.64441090
Au      78.01771908      13.73771908      17.64441090
Au      76.40882180      14.16882180      15.28882180
Au      77.58661635      15.34661635      20.00000000
Au      78.33330818      18.13330818      20.00000000
Au      80.37330818      16.09330818      20.00000000
Au      78.76441090      16.52441090      17.64441090
Au      79.94220545      17.70220545      22.35558910
Au      80.68889727      20.48889727      22.35558910
Au      82.72889727      18.44889727      22.35558910
Au      81.12000000      18.88000000      20.00000000
Au      82.29779455      20.05779455      24.71117820
Au      83.04448637      22.84448637      24.71117820
Au      85.08448637      20.80448637      24.71117820
Au      83.47558910      21.23558910      22.35558910
Au      84.65338365      22.41338365      27.06676729
Au      85.40007547      25.20007547      27.06676729
Au      87.44007547      23.16007547      27.06676729
Au      85.83117820      23.59117820      24.71117820
Au      87.00897275      24.76897275      29.42235639
Au      87.75566457      27.55566457      29.42235639
Au      89.79566457      25.51566457      29.42235639
Au      88.18676729      25.94676729      27.06676729
Au      89.36456184      27.12456184      31.77794549
Au      90.11125367      29.91125367      31.77794549
Au      92.15125367      27.87125367      31.77794549
Au      90.54235639      28.30235639      29.42235639
Au      91.72015094      29.48015094      34.13353459
Au      92.89794549      30.65794549      31.77794549
Au      67.30205451       9.14205451       8.22205451
Au      68.04874633      11.92874633       8.22205451
Au      70.08874633       9.88874633       8.22205451
Au      68.47984906      10.31984906       5.86646541
Au      69.65764361      11.49764361      10.57764361
Au      70.40433543      14.28433543      10.57764361
Au      72.44433543      12.24433543      10.57764361
Au      70.83543816      12.67543816       8.22205451
Au      72.01323271      13.85323271      12.93323271
Au      72.75992453      16.63992453      12.93323271
Au      74.79992453      14.59992453      12.93323271
Au      73.19102725      15.03102725      10.57764361
Au      74.36882180      16.20882180      15.28882180
Au      75.11551363      18.99551363      15.28882180
Au      77.15551363      16.95551363      15.28882180
Au      75.54661635      17.38661635      12.93323271
Au      76.72441090      18.56441090      17.64441090
Au      77.47110273      21.35110273      17.64441090
Au      79.51110273      19.31110273      17.64441090
Au      77.90220545      19.74220545      15.28882180
Au      79.08000000      20.92000000      20.00000000
Au      79.82669182      23.70669182      20.00000000
Au      81.86669182      21.66669182      20.00000000
Au      80.25779455      22.09779455      17.64441090
Au      81.43558910      23.27558910      22.35558910
Au      82.18228092      26.06228092      22.35558910
Au      84.22228092      24.02228092      22.35558910
Au      82.61338365      24.45338365      20.00000000
Au      83.79117820      25.63117820      24.71117820
Au      84.53787002      28.41787002      24.71117820
Au      86.57787002      26.37787002      24.71117820
Au      84.96897275      26.80897275      22.35558910
Au      86.14676729      27.98676729      27.06676729
Au      86.89345912      30.77345912      27.06676729
Au      88.93345912      28.73345912      27.06676729
Au      87.32456184      29.16456184      24.71117820
Au      88.50235639      30.34235639      29.42235639
Au      89.24904822      33.12904822      29.42235639
Au      91.28904822      31.08904822      29.42235639
Au      89.68015094      31.52015094      27.06676729
Au      90.85794549      32.69794549      31.77794549
Au      92.03574004      33.87574004      29.42235639
Au      66.43984906      12.35984906       5.86646541
Au      67.18654088      15.14654088       5.86646541
Au      69.22654088      13.10654088       5.86646541
Au      67.61764361      13.53764361       3.51087631
Au      68.79543816      14.71543816       8.22205451
Au      69.54212998      17.50212998       8.22205451
Au      71.58212998      15.46212998       8.22205451
Au      69.97323271      15.89323271       5.86646541
Au      71.15102725      17.07102725      10.57764361
Au      71.89771908      19.85771908      10.57764361
Au      73.93771908      17.81771908      10.57764361
Au      72.32882180      18.24882180       8.22205451
Au      73.50661635      19.42661635      12.93323271
Au      74.25330818      22.21330818      12.93323271
Au      76.29330818      20.17330818      12.93323271
Au      74.68441090      20.60441090      10.57764361
Au      75.86220545      21.78220545      15.28882180
Au      76.60889727      24.56889727      15.28882180
Au      78.64889727      22.52889727      15.28882180
Au      77.04000000      22.96000000      12.93323271
Au      78.21779455      24.13779455      17.64441090
Au      78.96448637      26.92448637      17.64441090
Au      81.00448637      24.88448637      17.64441090
Au      79.39558910      25.31558910      15.28882180
Au      80.57338365      26.49338365      20.00000000
Au      81.32007547      29.28007547      20.00000000
Au      83.36007547      27.24007547      20.00000000
Au      81.75117820      27.67117820      17.64441090
Au      82.92897275      28.84897275      22.35558910
Au      83.67566457      31.63566457      22.35558910
Au      85.71566457      29.59566457      22.35558910
Au      84.10676729      30.02676729      20.00000000
Au      85.28456184      31.20456184      24.71117820
Au      86.03125367      33.99125367      24.71117820
Au      88.07125367      31.95125367      24.71117820
Au      86.46235639      32.38235639      22.35558910
Au      87.64015094      33.56015094      27.06676729
Au      88.38684277      36.34684277      27.06676729
Au      90.42684277      34.30684277      27.06676729
Au      88.81794549      34.73794549      24.71117820
Au      89.99574004      35.91574004      29.42235639
Au      91.17353459      37.09353459      27.06676729
Au      65.57764361      15.57764361       3.51087631
Au      66.32433543      18.36433543       3.51087631
Au      68.36433543      16.32433543       3.51087631
Au      66.75543816      16.75543816       1.15528721
Au      67.93323271      17.93323271       5.86646541
Au      68.67992453      20.71992453       5.86646541
Au      70.71992453      18.67992453       5.86646541
Au      69.11102725      19.11102725       3.51087631
Au      70.28882180      20.28882180       8.22205451
Au      71.03551363      23.07551363       8.22205451
Au      73.07551363      21.03551363       8.22205451
Au      71.46661635      21.46661635       5.86646541
Au      72.64441090      22.64441090      10.57764361
Au      73.39110273      25.43110273      10.57764361
Au      75.43110273      23.39110273      10.57764361
Au      73.82220545      23.82220545       8.22205451
Au      75.00000000      25.00000000      12.93323271
Au      75.74669182      27.78669182      12.93323271
Au      77.78669182      25.74669182      12.93323271
Au      76.17779455      26.17779455      10.57764361
Au      77.35558910      27.35558910      15.28882180
Au      78.10228092      30.14228092      15.28882180
Au      80.14228092      28.10228092      15.28882180
Au      78.53338365      28.53338365      12.93323271
Au      79.71117820      29.71117820      17.64441090
Au      80.45787002      32.49787002      17.64441090
Au      82.49787002      30.45787002      17.64441090
Au      80.88897275      30.88897275      15.28882180
Au      82.06676729      32.06676729      20.00000000
Au      82.81345912      34.85345912      20.00000000
Au      84.85345912      32.81345912      20.00000000
Au      83.24456184      33.24456184      17.64441090
Au      84.42235639      34.42235639      22.35558910
Au      85.16904822      37.20904822      22.35558910
Au      87.20904822      35.16904822      22.35558910
Au      85.60015094      35.60015094      20.00000000
Au      86.77794549      36.77794549      24.71117820
Au      87.52463732      39.56463732      24.71117820
Au      89.56463732      37.52463732      24.71117820
Au      87.95574004      37.95574004      22.35558910
Au      89.13353459      39.13353459      27.06676729
Au      90.31132914      40.31132914      24.71117820
Au      64.71543816      18.79543816       1.15528721
Au      65.46212998      21.58212998       1.15528721
Au      67.50212998      19.54212998       1.15528721
Au      67.07102725      21.15102725       3.51087631
Au      67.81771908      23.93771908       3.51087631
Au      69.85771908      21.89771908       3.51087631
Au      68.24882180      22.32882180       1.15528721
Au      69.42661635      23.50661635       5.86646541
Au      70.17330818      26.29330818       5.86646541
Au      72.21330818      24.25330818       5.86646541
Au      70.60441090      24.68441090       3.51087631
Au      71.78220545      25.86220545       8.22205451
Au      72.52889727      28.64889727       8.22205451
Au      74.56889727      26.60889727       8.22205451
Au      72.96000000      27.04000000       5.86646541
Au      74.13779455      28.21779455      10.57764361
Au      74.88448637      31.00448637      10.57764361
Au      76.92448637      28.96448637      10.57764361
Au      75.31558910      29.39558910       8.22205451
Au      76.49338365      30.57338365      12.93323271
Au      77.24007547      33.36007547      12.93323271
Au      79.28007547      31.32007547      12.93323271
Au      77.67117820      31.75117820      10.57764361
Au      78.84897275      32.92897275      15.28882180
Au      79.59566457      35.71566457      15.28882180
Au      81.63566457      33.67566457      15.28882180
Au      80.02676729      34.10676729      12.93323271
Au      81.20456184      35.28456184      17.64441090
Au      81.95125367      38.07125367      17.64441090
Au      83.99125367      36.03125367      17.64441090
Au      82.38235639      36.46235639      15.28882180
Au      83.56015094      37.64015094      20.00000000
Au      84.30684277      40.42684277      20.00000000
Au      86.34684277      38.38684277      20.00000000
Au      84.73794549      38.81794549      17.64441090
Au      85.91574004      39.99574004      22.35558910
Au      86.66243186      42.78243186      22.35558910
Au      88.70243186      40.74243186      22.35558910
Au      87.09353459      41.17353459      20.00000000
Au      88.27132914      42.35132914      24.71117820
Au      66.20882180      24.36882180       1.15528721
Au      66.95551363      27.15551363       1.15528721
Au      68.99551363      25.11551363       1.15528721
Au      68.56441090      26.72441090       3.51087631
Au      69.31110273      29.51110273       3.51087631
Au      71.35110273      27.47110273       3.51087631
Au      69.74220545      27.90220545       1.15528721
Au      70.92000000      29.08000000       5.86646541
Au      71.66669182      31.86669182       5.86646541
Au      73.70669182      29.82669182       5.86646541
Au      72.09779455      30.25779455       3.51087631
Au      73.27558910      31.43558910       8.22205451
Au      74.02228092      34.22228092       8.22205451
Au      76.06228092      32.18228092       8.22205451
Au      74.45338365      32.61338365       5.86646541
Au      75.63117820      33.79117820      10.57764361
Au      76.37787002      36.57787002      10.57764361
Au      78.41787002      34.53787002      10.57764361
Au      76.80897275      34.96897275       8.22205451
Au      77.98676729      36.14676729      12.93323271
Au      78.73345912      38.93345912      12.93323271
Au      80.77345912      36.89345912      12.93323271
Au      79.16456184      37.32456184      10.57764361
Au      80.34235639      38.50235639      15.28882180
Au      81.08904822      41.28904822      15.28882180
Au      83.12904822      39.24904822      15.28882180
Au      81.52015094      39.68015094      12.93323271
Au      82.69794549      40.85794549      17.64441090
Au      83.44463732      43.64463732      17.64441090
Au      85.48463732      41.60463732      17.64441090
Au      83.87574004      42.03574004      15.28882180
Au      85.05353459      43.21353459      20.00000000
Au      67.70220545      29.94220545       1.15528721
Au      68.44889727      32.72889727       1.15528721
Au      70.48889727      30.68889727       1.15528721
Au      70.05779455      32.29779455       3.51087631
Au      70.80448637      35.08448637       3.51087631
Au      72.84448637      33.04448637       3.51087631
Au      71.23558910      33.47558910       1.15528721
Au      72.41338365      34.65338365       5.86646541
Au      73.16007547      37.44007547       5.86646541
Au      75.20007547      35.40007547       5.86646541
Au      73.59117820      35.83117820       3.51087631
Au      74.76897275      37.00897275       8.22205451
Au      75.51566457      39.79566457       8.22205451
Au      77.55566457      37.75566457       8.22205451
Au      75.94676729      38.18676729       5.86646541
Au      77.12456184      39.36456184      10.57764361
Au      77.87125367      42.15125367      10.57764361
Au      79.91125367      40.11125367      10.57764361
Au      78.30235639      40.54235639       8.22205451
Au      79.48015094      41.72015094      12.93323271
Au      80.22684277      44.50684277      12.93323271
Au      82.26684277      42.46684277      12.93323271
Au      80.65794549      42.89794549      10.57764361
Au      81.83574004      44.07574004      15.28882180
Au      69.19558910      35.51558910       1.15528721
Au      71.98228092      36.26228092       1.15528721
Au      71.55117820      37.87117820       3.51087631
Au      74.33787002      38.61787002       3.51087631
Au      73.90676729      40.22676729       5.86646541
Au      76.69345912      40.97345912       5.86646541
Au      76.26235639      42.58235639       8.22205451
Au      79.04904822      43.32904822       8.22205451
Au      78.61794549      44.93794549      10.57764361
Au      81.78212998       5.26212998      22.35558910
Au      83.39102725       4.83102725      24.71117820
Au      84.13771908       7.61771908      24.71117820
Au      84.56882180       6.00882180      22.35558910
Au      85.74661635       7.18661635      27.06676729
Au      86.49330818       9.97330818      27.06676729
Au      86.92441090       8.36441090      24.71117820
Au      88.10220545       9.54220545      29.42235639
Au      88.84889727      12.32889727      29.42235639
Au      89.28000000      10.72000000      27.06676729
Au      78.56433543       6.12433543      17.64441090
Au      80.17323271       5.69323271      20.00000000
Au      80.91992453       8.47992453      20.00000000
Au      82.95992453       6.43992453      20.00000000
Au      81.35102725       6.87102725      17.64441090
Au      82.52882180       8.04882180      22.35558910
Au      83.27551363      10.83551363      22.35558910
Au      85.31551363       8.79551363      22.35558910
Au      83.70661635       9.22661635      20.00000000
Au      84.88441090      10.40441090      24.71117820
Au      85.63110273      13.19110273      24.71117820
Au      87.67110273      11.15110273      24.71117820
Au      86.06220545      11.58220545      22.35558910
Au      87.24000000      12.76000000      27.06676729
Au      87.98669182      15.54669182      27.06676729
Au      90.02669182      13.50669182      27.06676729
Au      88.41779455      13.93779455      24.71117820
Au      89.59558910      15.11558910      29.42235639
Au      90.34228092      17.90228092      29.42235639
Au      90.77338365      16.29338365      27.06676729
Au      75.34654088       6.98654088      12.93323271
Au      76.95543816       6.55543816      15.28882180
Au      77.70212998       9.34212998      15.28882180
Au      79.74212998       7.30212998      15.28882180
Au      78.13323271       7.73323271      12.93323271
Au      79.31102725       8.91102725      17.64441090
Au      80.05771908      11.69771908      17.64441090
Au      82.09771908       9.65771908      17.64441090
Au      80.48882180      10.08882180      15.28882180
Au      81.66661635      11.26661635      20.00000000
Au      82.41330818      14.05330818      20.00000000
Au      84.45330818      12.01330818      20.00000000
Au      82.84441090      12.44441090      17.64441090
Au      84.02220545      13.62220545      22.35558910
Au      84.76889727      16.40889727      22.35558910
Au      86.80889727      14.36889727      22.35558910
Au      85.20000000      14.80000000      20.00000000
Au      86.37779455      15.97779455      24.71117820
Au      87.12448637      18.76448637      24.71117820
Au      89.16448637      16.72448637      24.71117820
Au      87.55558910      17.15558910      22.35558910
Au      88.73338365      18.33338365      27.06676729
Au      89.48007547      21.12007547      27.06676729
Au      91.52007547      19.08007547      27.06676729
Au      89.91117820      19.51117820      24.71117820
Au      91.08897275      20.68897275      29.42235639
Au      91.83566457      23.47566457      29.42235639
Au      92.26676729      21.86676729      27.06676729
Au      72.12874633       7.84874633       8.22205451
Au      73.73764361       7.41764361      10.57764361
Au      74.48433543      10.20433543      10.57764361
Au      76.52433543       8.16433543      10.57764361
Au      74.91543816       8.59543816       8.22205451
Au      76.09323271       9.77323271      12.93323271
Au      76.83992453      12.55992453      12.93323271
Au      78.87992453      10.51992453      12.93323271
Au      77.27102725      10.95102725      10.57764361
Au      78.44882180      12.12882180      15.28882180
Au      79.19551363      14.91551363      15.28882180
Au      81.23551363      12.87551363      15.28882180
Au      79.62661635      13.30661635      12.93323271
Au      80.80441090      14.48441090      17.64441090
Au      81.55110273      17.27110273      17.64441090
Au      83.59110273      15.23110273      17.64441090
Au      81.98220545      15.66220545      15.28882180
Au      83.16000000      16.84000000      20.00000000
Au      83.90669182      19.62669182      20.00000000
Au      85.94669182      17.58669182      20.00000000
Au      84.33779455      18.01779455      17.64441090
Au      85.51558910      19.19558910      22.35558910
Au      86.26228092      21.98228092      22.35558910
Au      88.30228092      19.94228092      22.35558910
Au      86.69338365      20.37338365      20.00000000
Au      87.87117820      21.55117820      24.71117820
Au      88.61787002      24.33787002      24.71117820
Au      90.65787002      22.29787002      24.71117820
Au      89.04897275      22.72897275      22.35558910
Au      90.22676729      23.90676729      27.06676729
Au      90.97345912      26.69345912      27.06676729
Au      93.01345912      24.65345912      27.06676729
Au      91.40456184      25.08456184      24.71117820
Au      92.58235639      26.26235639      29.42235639
Au      93.32904822      29.04904822      29.42235639
Au      93.76015094      27.44015094      27.06676729
Au      70.51984906       8.27984906       5.86646541
Au      71.26654088      11.06654088       5.86646541
Au      73.30654088       9.02654088       5.86646541
Au      72.87543816      10.63543816       8.22205451
Au      73.62212998      13.42212998       8.22205451
Au      75.66212998      11.38212998       8.22205451
Au      74.05323271      11.81323271       5.86646541
Au      75.23102725      12.99102725      10.57764361
Au      75.97771908      15.77771908      10.57764361
Au      78.01771908      13.73771908      10.57764361
Au      76.40882180      14.16882180       8.22205451
Au      77.58661635      15.34661635      12.93323271
Au      78.33330818      18.13330818      12.93323271
Au      80.37330818      16.09330818      12.93323271
Au      78.76441090      16.52441090      10.57764361
Au      79.94220545      17.70220545      15.28882180
Au      80.68889727      20.48889727      15.28882180
Au      82.72889727      18.44889727      15.28882180
Au      81.12000000      18.88000000      12.93323271
Au      82.29779455      20.05779455      17.64441090
Au      83.04448637      22.84448637      17.64441090
Au      85.08448637      20.80448637      17.64441090
Au      83.47558910      21.23558910      15.28882180
Au      84.65338365      22.41338365      20.00000000
Au      85.40007547      25.20007547      20.00000000
Au      87.44007547      23.16007547      20.00000000
Au      85.83117820      23.59117820      17.64441090
Au      87.00897275      24.76897275      22.35558910
Au      87.75566457      27.55566457      22.35558910
Au      89.79566457      25.51566457      22.35558910
Au      88.18676729      25.94676729      20.00000000
Au      89.36456184      27.12456184      24.71117820
Au      90.11125367      29.91125367      24.71117820
Au      92.15125367      27.87125367      24.71117820
Au      90.54235639      28.30235639      22.35558910
Au      91.72015094      29.48015094      27.06676729
Au      92.46684277      32.26684277      27.06676729
Au      94.50684277      30.22684277      27.06676729
Au      92.89794549      30.65794549      24.71117820
Au      94.07574004      31.83574004      29.42235639
Au      69.65764361      11.49764361       3.51087631
Au      70.40433543      14.28433543       3.51087631
Au      72.44433543      12.24433543       3.51087631
Au      72.01323271      13.85323271       5.86646541
Au      72.75992453      16.63992453       5.86646541
Au      74.79992453      14.59992453       5.86646541
Au      73.19102725      15.03102725       3.51087631
Au      74.36882180      16.20882180       8.22205451
Au      75.11551363      18.99551363       8.22205451
Au      77.15551363      16.95551363       8.22205451
Au      75.54661635      17.38661635       5.86646541
Au      76.72441090      18.56441090      10.57764361
Au      77.47110273      21.35110273      10.57764361
Au      79.51110273      19.31110273      10.57764361
Au      77.90220545      19.74220545       8.22205451
Au      79.08000000      20.92000000      12.93323271
Au      79.82669182      23.70669182      12.93323271
Au      81.86669182      21.66669182      12.93323271
Au      80.25779455      22.09779455      10.57764361
Au      81.43558910      23.27558910      15.28882180
Au      82.18228092      26.06228092      15.28882180
Au      84.22228092      24.02228092      15.28882180
Au      82.61338365      24.45338365      12.93323271
Au      83.79117820      25.63117820      17.64441090
Au      84.53787002      28.41787002      17.64441090
Au      86.57787002      26.37787002      17.64441090
Au      84.96897275      26.80897275      15.28882180
Au      86.14676729      27.98676729      20.00000000
Au      86.89345912      30.77345912      20.00000000
Au      88.93345912      28.73345912      20.00000000
Au      87.32456184      29.16456184      17.64441090
Au      88.50235639      30.34235639      22.35558910
Au      89.24904822      33.12904822      22.35558910
Au      91.28904822      31.08904822      22.35558910
Au      89.68015094      31.52015094      20.00000000
Au      90.85794549      32.69794549      24.71117820
Au      91.60463732      35.48463732      24.71117820
Au      93.64463732      33.44463732      24.71117820
Au      92.03574004      33.87574004      22.35558910
Au      93.21353459      35.05353459      27.06676729
Au      68.79543816      14.71543816       1.15528721
Au      69.54212998      17.50212998       1.15528721
Au      71.58212998      15.46212998       1.15528721
Au      71.15102725      17.07102725       3.51087631
Au      71.89771908      19.85771908       3.51087631
Au      73.93771908      17.81771908       3.51087631
Au      72.32882180      18.24882180       1.15528721
Au      73.50661635      19.42661635       5.86646541
Au      74.25330818      22.21330818       5.86646541
Au      76.29330818      20.17330818       5.86646541
Au      74.68441090      20.60441090       3.51087631
Au      75.86220545      21.78220545       8.22205451
Au      76.60889727      24.56889727       8.22205451
Au      78.64889727      22.52889727       8.22205451
Au      77.04000000      22.96000000       5.86646541
Au      78.21779455      24.13779455      10.57764361
Au      78.96448637      26.92448637      10.57764361
Au      81.00448637      24.88448637      10.57764361
Au      79.39558910      25.31558910       8.22205451
Au      80.57338365      26.49338365      12.93323271
Au      81.32007547      29.28007547      12.93323271
Au      83.36007547      27.24007547      12.93323271
Au      81.75117820      27.67117820      10.57764361
Au      82.92897275      28.84897275      15.28882180
Au      83.67566457      31.63566457      15.28882180
Au      85.71566457      29.59566457      15.28882180
Au      84.10676729      30.02676729      12.93323271
Au      85.28456184      31.20456184      17.64441090
Au      86.03125367      33.99125367      17.64441090
Au      88.07125367      31.95125367      17.64441090
Au      86.46235639      32.38235639      15.28882180
Au      87.64015094      33.56015094      20.00000000
Au      88.38684277      36.34684277      20.00000000
Au      90.42684277      34.30684277      20.00000000
Au      88.81794549      34.73794549      17.64441090
Au      89.99574004      35.91574004      22.35558910
Au      90.74243186      38.70243186      22.35558910
Au      92.78243186      36.66243186      22.35558910
Au      91.17353459      37.09353459      20.00000000
Au      92.35132914      38.27132914      24.71117820
Au      70.28882180      20.28882180       1.15528721
Au      71.03551363      23.07551363       1.15528721
Au      73.07551363      21.03551363       1.15528721
Au      72.64441090      22.64441090       3.51087631
Au      73.39110273      25.43110273       3.51087631
Au      75.43110273      23.39110273       3.51087631
Au      73.82220545      23.82220545       1.15528721
Au      75.00000000      25.00000000       5.86646541
Au      75.74669182      27.78669182       5.86646541
Au      77.78669182      25.74669182       5.86646541
Au      76.17779455      26.17779455       3.51087631
Au      77.35558910      27.35558910       8.22205451
Au      78.10228092      30.14228092       8.22205451
Au      80.14228092      28.10228092       8.22205451
Au      78.53338365      28.53338365       5.86646541
Au      79.71117820      29.71117820      10.57764361
Au      80.45787002      32.49787002      10.57764361
Au      82.49787002      30.45787002      10.57764361
Au      80.88897275      30.88897275       8.22205451
Au      82.06676729      32.06676729      12.93323271
Au      82.81345912      34.85345912      12.93323271
Au      84.85345912      32.81345912      12.93323271
Au      83.24456184      33.24456184      10.57764361
Au      84.42235639      34.42235639      15.28882180
Au      85.16904822      37.20904822      15.28882180
Au      87.20904822      35.16904822      15.28882180
Au      85.60015094      35.60015094      12.93323271
Au      86.77794549      36.77794549      17.64441090
Au      87.52463732      39.56463732      17.64441090
Au      89.56463732      37.52463732      17.64441090
Au      87.95574004      37.95574004      15.28882180
Au      89.13353459      39.13353459      20.00000000
Au      71.78220545      25.86220545       1.15528721
Au      72.52889727      28.64889727       1.15528721
Au      74.56889727      26.60889727       1.15528721
Au      74.13779455      28.21779455       3.51087631
Au      74.88448637      31.00448637       3.51087631
Au      76.92448637      28.96448637       3.51087631
Au      75.31558910      29.39558910       1.15528721
Au      76.49338365      30.57338365       5.86646541
Au      77.24007547      33.36007547       5.86646541
Au      79.28007547      31.32007547       5.86646541
Au      77.67117820      31.75117820       3.51087631
Au      78.84897275      32.92897275       8.22205451
Au      79.59566457      35.71566457       8.22205451
Au      81.63566457      33.67566457       8.22205451
Au      80.02676729      34.10676729       5.86646541
Au      81.20456184      35.28456184      10.57764361
Au      81.95125367      38.07125367      10.57764361
Au      83.99125367      36.03125367      10.57764361
Au      82.38235639      36.46235639       8.22205451
Au      83.56015094      37.64015094      12.93323271
Au      84.30684277      40.42684277      12.93323271
Au      86.34684277      38.38684277      12.93323271
Au      84.73794549      38.81794549      10.57764361
Au      85.91574004      39.99574004      15.28882180
Au      73.27558910      31.43558910       1.15528721
Au      74.02228092      34.22228092       1.15528721
Au      76.06228092      32.18228092       1.15528721
Au      75.63117820      33.79117820       3.51087631
Au      76.37787002      36.57787002       3.51087631
Au      78.41787002      34.53787002       3.51087631
Au      76.80897275      34.96897275       1.15528721
Au      77.98676729      36.14676729       5.86646541
Au      78.73345912      38.93345912       5.86646541
Au      80.77345912      36.89345912       5.86646541
Au      79.16456184      37.32456184       3.51087631
Au      80.34235639      38.50235639       8.22205451
Au      81.08904822      41.28904822       8.22205451
Au      83.12904822      39.24904822       8.22205451
Au      81.52015094      39.68015094       5.86646541
Au      82.69794549      40.85794549      10.57764361
Au      74.76897275      37.00897275       1.15528721
Au      77.12456184      39.36456184       3.51087631
Au      79.48015094      41.72015094       5.86646541
Au      84.13771908       7.61771908      17.64441090
Au      85.74661635       7.18661635      20.00000000
Au      86.49330818       9.97330818      20.00000000
Au      86.92441090       8.36441090      17.64441090
Au      88.10220545       9.54220545      22.35558910
Au      88.84889727      12.32889727      22.35558910
Au      89.28000000      10.72000000      20.00000000
Au      90.45779455      11.89779455      24.71117820
Au      91.20448637      14.68448637      24.71117820
Au      91.63558910      13.07558910      22.35558910
Au      80.91992453       8.47992453      12.93323271
Au      82.52882180       8.04882180      15.28882180
Au      83.27551363      10.83551363      15.28882180
Au      85.31551363       8.79551363      15.28882180
Au      83.70661635       9.22661635      12.93323271
Au      84.88441090      10.40441090      17.64441090
Au      85.63110273      13.19110273      17.64441090
Au      87.67110273      11.15110273      17.64441090
Au      86.06220545      11.58220545      15.28882180
Au      87.24000000      12.76000000      20.00000000
Au      87.98669182      15.54669182      20.00000000
Au      90.02669182      13.50669182      20.00000000
Au      88.41779455      13.93779455      17.64441090
Au      89.59558910      15.11558910      22.35558910
Au      90.34228092      17.90228092      22.35558910
Au      92.38228092      15.86228092      22.35558910
Au      90.77338365      16.29338365      20.00000000
Au      91.95117820      17.47117820      24.71117820
Au      92.69787002      20.25787002      24.71117820
Au      93.12897275      18.64897275      22.35558910
Au      77.70212998       9.34212998       8.22205451
Au      79.31102725       8.91102725      10.57764361
Au      80.05771908      11.69771908      10.57764361
Au      82.09771908       9.65771908      10.57764361
Au      80.48882180      10.08882180       8.22205451
Au      81.66661635      11.26661635      12.93323271
Au      82.41330818      14.05330818      12.93323271
Au      84.45330818      12.01330818      12.93323271
Au      82.84441090      12.44441090      10.57764361
Au      84.02220545      13.62220545      15.28882180
Au      84.76889727      16.40889727      15.28882180
Au      86.80889727      14.36889727      15.28882180
Au      85.20000000      14.80000000      12.93323271
Au      86.37779455      15.97779455      17.64441090
Au      87.12448637      18.76448637      17.64441090
Au      89.16448637      16.72448637      17.64441090
Au      87.55558910      17.15558910      15.28882180
Au      88.73338365      18.33338365      20.00000000
Au      89.48007547      21.12007547      20.00000000
Au      91.52007547      19.08007547      20.00000000
Au      89.91117820      19.51117820      17.64441090
Au      91.08897275      20.68897275      22.35558910
Au      91.83566457      23.47566457      22.35558910
Au      93.87566457      21.43566457      22.35558910
Au      92.26676729      21.86676729      20.00000000
Au      93.44456184      23.04456184      24.71117820
Au      94.19125367      25.83125367      24.71117820
Au      94.62235639      24.22235639      22.35558910
Au      76.09323271       9.77323271       5.86646541
Au      76.83992453      12.55992453       5.86646541
Au      78.87992453      10.51992453       5.86646541
Au      78.44882180      12.12882180       8.22205451
Au      79.19551363      14.91551363       8.22205451
Au      81.23551363      12.87551363       8.22205451
Au      79.62661635      13.30661635       5.86646541
Au      80.80441090      14.48441090      10.57764361
Au      81.55110273      17.27110273      10.57764361
Au      83.59110273      15.23110273      10.57764361
Au      81.98220545      15.66220545       8.22205451
Au      83.16000000      16.84000000      12.93323271
Au      83.90669182      19.62669182      12.93323271
Au      85.94669182      17.58669182      12.93323271
Au      84.33779455      18.01779455      10.57764361
Au      85.51558910      19.19558910      15.28882180
Au      86.26228092      21.98228092      15.28882180
Au      88.30228092      19.94228092      15.28882180
Au      86.69338365      20.37338365      12.93323271
Au      87.87117820      21.55117820      17.64441090
Au      88.61787002      24.33787002      17.64441090
Au      90.65787002      22.29787002      17.64441090
Au      89.04897275      22.72897275      15.28882180
Au      90.22676729      23.90676729      20.00000000
Au      90.97345912      26.69345912      20.00000000
Au      93.01345912      24.65345912      20.00000000
Au      91.40456184      25.08456184      17.64441090
Au      92.58235639      26.26235639      22.35558910
Au      93.32904822      29.04904822      22.35558910
Au      95.36904822      27.00904822      22.35558910
Au      93.76015094      27.44015094      20.00000000
Au      94.93794549      28.61794549      24.71117820
Au      75.23102725      12.99102725       3.51087631
Au      75.97771908      15.77771908       3.51087631
Au      78.01771908      13.73771908       3.51087631
Au      77.58661635      15.34661635       5.86646541
Au      78.33330818      18.13330818       5.86646541
Au      80.37330818      16.09330818       5.86646541
Au      78.76441090      16.52441090       3.51087631
Au      79.94220545      17.70220545       8.22205451
Au      80.68889727      20.48889727       8.22205451
Au      82.72889727      18.44889727       8.22205451
Au      81.12000000      18.88000000       5.86646541
Au      82.29779455      20.05779455      10.57764361
Au      83.04448637      22.84448637      10.57764361
Au      85.08448637      20.80448637      10.57764361
Au      83.47558910      21.23558910       8.22205451
Au      84.65338365      22.41338365      12.93323271
Au      85.40007547      25.20007547      12.93323271
Au      87.44007547      23.16007547      12.93323271
Au      85.83117820      23.59117820      10.57764361
Au      87.00897275      24.76897275      15.28882180
Au      87.75566457      27.55566457      15.28882180
Au      89.79566457      25.51566457      15.28882180
Au      88.18676729      25.94676729      12.93323271
Au      89.36456184      27.12456184      17.64441090
Au      90.11125367      29.91125367      17.64441090
Au      92.15125367      27.87125367      17.64441090
Au      90.54235639      28.30235639      15.28882180
Au      91.72015094      29.48015094      20.00000000
Au      92.46684277      32.26684277      20.00000000
Au      94.50684277      30.22684277      20.00000000
Au      92.89794549      30.65794549      17.64441090
Au      94.07574004      31.83574004      22.35558910
Au      74.36882180      16.20882180       1.15528721
Au      75.11551363      18.99551363       1.15528721
Au      77.15551363      16.95551363       1.15528721
Au      76.72441090      18.56441090       3.51087631
Au      77.47110273      21.35110273       3.51087631
Au      79.51110273      19.31110273       3.51087631
Au      77.90220545      19.74220545       1.15528721
Au      79.08000000      20.92000000       5.86646541
Au      79.82669182      23.70669182       5.86646541
Au      81.86669182      21.66669182       5.86646541
Au      80.25779455      22.09779455       3.51087631
Au      81.43558910      23.27558910       8.22205451
Au      82.18228092      26.06228092       8.22205451
Au      84.22228092      24.02228092       8.22205451
Au      82.61338365      24.45338365       5.86646541
Au      83.79117820      25.63117820      10.57764361
Au      84.53787002      28.41787002      10.57764361
Au      86.57787002      26.37787002      10.57764361
Au      84.96897275      26.80897275       8.22205451
Au      86.14676729      27.98676729      12.93323271
Au      86.89345912      30.77345912      12.93323271
Au      88.93345912      28.73345912      12.93323271
Au      87.32456184      29.16456184      10.57764361
Au      88.50235639      30.34235639      15.28882180
Au      89.24904822      33.12904822      15.28882180
Au      91.28904822      31.08904822      15.28882180
Au      89.68015094      31.52015094      12.93323271
Au      90.85794549      32.69794549      17.64441090
Au      91.60463732      35.48463732      17.64441090
Au      93.64463732      33.44463732      17.64441090
Au      92.03574004      33.87574004      15.28882180
Au      93.21353459      35.05353459      20.00000000
Au      75.86220545      21.78220545       1.15528721
Au      76.60889727      24.56889727       1.15528721
Au      78.64889727      22.52889727       1.15528721
Au      78.21779455      24.13779455       3.51087631
Au      78.96448637      26.92448637       3.51087631
Au      81.00448637      24.88448637       3.51087631
Au      79.39558910      25.31558910       1.15528721
Au      80.57338365      26.49338365       5.86646541
Au      81.32007547      29.28007547       5.86646541
Au      83.36007547      27.24007547       5.86646541
Au      81.75117820      27.67117820       3.51087631
Au      82.92897275      28.84897275       8.22205451
Au      83.67566457      31.63566457       8.22205451
Au      85.71566457      29.59566457       8.22205451
Au      84.10676729      30.02676729       5.86646541
Au      85.28456184      31.20456184      10.57764361
Au      86.03125367      33.99125367      10.57764361
Au      88.07125367      31.95125367      10.57764361
Au      86.46235639      32.38235639       8.22205451
Au      87.64015094      33.56015094      12.93323271
Au      88.38684277      36.34684277      12.93323271
Au      90.42684277      34.30684277      12.93323271
Au      88.81794549      34.73794549      10.57764361
Au      89.99574004      35.91574004      15.28882180
Au      77.35558910      27.35558910       1.15528721
Au      78.10228092      30.14228092       1.15528721
Au      80.14228092      28.10228092       1.15528721
Au      79.71117820      29.71117820       3.51087631
Au      80.45787002      32.49787002       3.51087631
Au      82.49787002      30.45787002       3.51087631
Au      80.88897275      30.88897275       1.15528721
Au      82.06676729      32.06676729       5.86646541
Au      82.81345912      34.85345912       5.86646541
Au      84.85345912      32.81345912       5.86646541
Au      83.24456184      33.24456184       3.51087631
Au      84.42235639      34.42235639       8.22205451
Au      85.16904822      37.20904822       8.22205451
Au      87.20904822      35.16904822       8.22205451
Au      85.60015094      35.60015094       5.86646541
Au      86.77794549      36.77794549      10.57764361
Au      78.84897275      32.92897275       1.15528721
Au      81.20456184      35.28456184       3.51087631
Au      83.56015094      37.64015094       5.86646541
Au      86.49330818       9.97330818      12.93323271
Au      88.10220545       9.54220545      15.28882180
Au      88.84889727      12.32889727      15.28882180
Au      89.28000000      10.72000000      12.93323271
Au      90.45779455      11.89779455      17.64441090
Au      91.20448637      14.68448637      17.64441090
Au      91.63558910      13.07558910      15.28882180
Au      92.81338365      14.25338365      20.00000000
Au      93.56007547      17.04007547      20.00000000
Au      93.99117820      15.43117820      17.64441090
Au      83.27551363      10.83551363       8.22205451
Au      84.88441090      10.40441090      10.57764361
Au      85.63110273      13.19110273      10.57764361
Au      87.67110273      11.15110273      10.57764361
Au      86.06220545      11.58220545       8.22205451
Au      87.24000000      12.76000000      12.93323271
Au      87.98669182      15.54669182      12.93323271
Au      90.02669182      13.50669182      12.93323271
Au      88.41779455      13.93779455      10.57764361
Au      89.59558910      15.11558910      15.28882180
Au      90.34228092      17.90228092      15.28882180
Au      92.38228092      15.86228092      15.28882180
Au      90.77338365      16.29338365      12.93323271
Au      91.95117820      17.47117820      17.64441090
Au      92.69787002      20.25787002      17.64441090
Au      94.73787002      18.21787002      17.64441090
Au      93.12897275      18.64897275      15.28882180
Au      94.30676729      19.82676729      20.00000000
Au      95.05345912      22.61345912      20.00000000
Au      95.48456184      21.00456184      17.64441090
Au      81.66661635      11.26661635       5.86646541
Au      82.41330818      14.05330818       5.86646541
Au      84.45330818      12.01330818       5.86646541
Au      84.02220545      13.62220545       8.22205451
Au      84.76889727      16.40889727       8.22205451
Au      86.80889727      14.36889727       8.22205451
Au      85.20000000      14.80000000       5.86646541
Au      86.37779455      15.97779455      10.57764361
Au      87.12448637      18.76448637      10.57764361
Au      89.16448637      16.72448637      10.57764361
Au      87.55558910      17.15558910       8.22205451
Au      88.73338365      18.33338365      12.93323271
Au      89.48007547      21.12007547      12.93323271
Au      91.52007547      19.08007547      12.93323271
Au      89.91117820      19.51117820      10.57764361
Au      91.08897275      20.68897275      15.28882180
Au      91.83566457      23.47566457      15.28882180
Au      93.87566457      21.43566457      15.28882180
Au      92.26676729      21.86676729      12.93323271
Au      93.44456184      23.04456184      17.64441090
Au      94.19125367      25.83125367      17.64441090
Au      96.23125367      23.79125367      17.64441090
Au      94.62235639      24.22235639      15.28882180
Au      95.80015094      25.40015094      20.00000000
Au      80.80441090      14.48441090       3.51087631
Au      81.55110273      17.27110273       3.51087631
Au      83.59110273      15.23110273       3.51087631
Au      83.16000000      16.84000000       5.86646541
Au      83.90669182      19.62669182       5.86646541
Au      85.94669182      17.58669182       5.86646541
Au      84.33779455      18.01779455       3.51087631
Au      85.51558910      19.19558910       8.22205451
Au      86.26228092      21.98228092       8.22205451
Au      88.30228092      19.94228092       8.22205451
Au      86.69338365      20.37338365       5.86646541
Au      87.87117820      21.55117820      10.57764361
Au      88.61787002      24.33787002      10.57764361
Au      90.65787002      22.29787002      10.57764361
Au      89.04897275      22.72897275       8.22205451
Au      90.22676729      23.90676729      12.93323271
Au      90.97345912      26.69345912      12.93323271
Au      93.01345912      24.65345912      12.93323271
Au      91.40456184      25.08456184      10.57764361
Au      92.58235639      26.26235639      15.28882180
Au      93.32904822      29.04904822      15.28882180
Au      95.36904822      27.00904822      15.28882180
Au      93.76015094      27.44015094      12.93323271
Au      94.93794549      28.61794549      17.64441090
Au      79.94220545      17.70220545       1.15528721
Au      80.68889727      20.48889727       1.15528721
Au      82.72889727      18.44889727       1.15528721
Au      82.29779455      20.05779455       3.51087631
Au      83.04448637      22.84448637       3.51087631
Au      85.08448637      20.80448637       3.51087631
Au      83.47558910      21.23558910       1.15528721
Au      84.65338365      22.41338365       5.86646541
Au      85.40007547      25.20007547       5.86646541
Au      87.44007547      23.16007547       5.86646541
Au      85.83117820      23.59117820       3.51087631
Au      87.00897275      24.76897275       8.22205451
Au      87.75566457      27.55566457       8.22205451
Au      89.79566457      25.51566457       8.22205451
Au      88.18676729      25.94676729       5.86646541
Au      89.36456184      27.12456184      10.57764361
Au      90.11125367      29.91125367      10.57764361
Au      92.15125367      27.87125367      10.57764361
Au      90.54235639      28.30235639       8.22205451
Au      91.72015094      29.48015094      12.93323271
Au      92.46684277      32.26684277      12.93323271
Au      94.50684277      30.22684277      12.93323271
Au      92.89794549      30.65794549      10.57764361
Au      94.07574004      31.83574004      15.28882180
Au      81.43558910      23.27558910       1.15528721
Au      82.18228092      26.06228092       1.15528721
Au      84.22228092      24.02228092       1.15528721
Au      83.79117820      25.63117820       3.51087631
Au      84.53787002      28.41787002       3.51087631
Au      86.57787002      26.37787002       3.51087631
Au      84.96897275      26.80897275       1.15528721
Au      86.14676729      27.98676729       5.86646541
Au      86.89345912      30.77345912       5.86646541
Au      88.93345912      28.73345912       5.86646541
Au      87.32456184      29.16456184       3.51087631
Au      88.50235639      30.34235639       8.22205451
Au      89.24904822      33.12904822       8.22205451
Au      91.28904822      31.08904822       8.22205451
Au      89.68015094      31.52015094       5.86646541
Au      90.85794549      32.69794549      10.57764361
Au      82.92897275      28.84897275       1.15528721
Au      85.28456184      31.20456184       3.51087631
Au      87.64015094      33.56015094       5.86646541
Au      88.84889727      12.32889727       8.22205451
Au      90.45779455      11.89779455      10.57764361
Au      91.20448637      14.68448637      10.57764361
Au      92.81338365      14.25338365      12.93323271
Au      93.56007547      17.04007547      12.93323271
Au      95.16897275      16.60897275      15.28882180
Au      95.91566457      19.39566457      15.28882180
Au      87.24000000      12.76000000       5.86646541
Au      87.98669182      15.54669182       5.86646541
Au      89.59558910      15.11558910       8.22205451
Au      90.34228092      17.90228092       8.22205451
Au      91.95117820      17.47117820      10.57764361
Au      92.69787002      20.25787002      10.57764361
Au      94.30676729      19.82676729      12.93323271
Au      95.05345912      22.61345912      12.93323271
Au      96.66235639      22.18235639      15.28882180
Au      86.37779455      15.97779455       3.51087631
Au      87.12448637      18.76448637       3.51087631
Au      88.73338365      18.33338365       5.86646541
Au      89.48007547      21.12007547       5.86646541
Au      91.08897275      20.68897275       8.22205451
Au      91.83566457      23.47566457       8.22205451
Au      93.44456184      23.04456184      10.57764361
Au      94.19125367      25.83125367      10.57764361
Au      95.80015094      25.40015094      12.93323271
Au      85.51558910      19.19558910       1.15528721
Au      86.26228092      21.98228092       1.15528721
Au      87.87117820      21.55117820       3.51087631
Au      88.61787002      24.33787002       3.51087631
Au      90.22676729      23.90676729       5.86646541
Au      90.97345912      26.69345912       5.86646541
Au      92.58235639      26.26235639       8.22205451
Au      93.32904822      29.04904822       8.22205451
Au      94.93794549      28.61794549      10.57764361
Au      87.00897275      24.76897275       1.15528721
Au      89.36456184      27.12456184       3.51087631
Au      91.72015094      29.48015094       5.86646541
